&FORCE_EVAL
  METHOD         Quickstep
  STRESS_TENSOR  ANALYTICAL
!  &PRINT
!    &STRESS_TENSOR
!   &END STRESS_TENSOR
!  &END PRINT
  &DFT
	    BASIS_SET_FILE_NAME /usr/local/cp2k-6.1/data/BASIS_MOLOPT
	    POTENTIAL_FILE_NAME /usr/local/cp2k-6.1/data/GTH_POTENTIALS
	    BASIS_SET_FILE_NAME /usr/local/cp2k-6.1/data/BASIS_ADMM_MOLOPT
	    BASIS_SET_FILE_NAME /usr/local/cp2k-6.1/data/BASIS_ADMM
            BASIS_SET_FILE_NAME /usr/local/cp2k-6.1/data/BASIS_RI_cc-TZ
	    WFN_RESTART_FILE_NAME /home/fambrosi/hydroxyl/test-koopman/anion/gga4/r/el.pbe0/water+I-.dyn-RESTART.wfn 
!    CHARGE -1
     UKS
    &MGRID
      CUTOFF       800
      REL_CUTOFF    50
    &END MGRID
    &QS
     METHOD GPW
     EPS_DEFAULT 1.0E-12
    &END QS
    &SCF
      SCF_GUESS  RESTART
      MAX_SCF    50
      &OT
        MINIMIZER       CG
        PRECONDITIONER  FULL_SINGLE_INVERSE
      &END
      &OUTER_SCF
        MAX_SCF  50
      &END
!      &PRINT
!        &RESTART OFF
!        &END
!      &END
    &END SCF
    &AUXILIARY_DENSITY_MATRIX_METHOD
        METHOD BASIS_PROJECTION
        ADMM_PURIFICATION_METHOD MO_DIAG
     &END AUXILIARY_DENSITY_MATRIX_METHOD
   &XC
    &XC_FUNCTIONAL
   &PBE
   SCALE_X 0.53
   SCALE_C 1.0
   &END PBE
   &PBE_HOLE_T_C_LR
    CUTOFF_RADIUS 6.0
    SCALE_X 0.47
    &END PBE_HOLE_T_C_LR
    &END XC_FUNCTIONAL
   &HF
    &SCREENING
    EPS_SCHWARZ 1.0E-6
    SCREEN_ON_INITIAL_P FALSE
    &END SCREENING
    &INTERACTION_POTENTIAL
     POTENTIAL_TYPE TRUNCATED
    CUTOFF_RADIUS 6.0
    T_C_G_DATA  /usr/local/cp2k-6.1/data/t_c_g.dat
    &END INTERACTION_POTENTIAL
     &MEMORY
     MAX_MEMORY 10000
    EPS_STORAGE_SCALING 0.1
    &END MEMORY
    FRACTION 0.47
    &END HF
      ! non-local vdW part
      &vdW_POTENTIAL
         DISPERSION_FUNCTIONAL NON_LOCAL
         &NON_LOCAL
           TYPE RVV10
           PARAMETERS  5.3  0.0093
           KERNEL_FILE_NAME   /usr/local/cp2k-6.1/data/rVV10_kernel_table.dat
           CUTOFF      400
         &END NON_LOCAL
      &END vdW_POTENTIAL
    &END XC
    &PRINT
     &MO_CUBES
      NHOMO 1
      NLUMO 1
      WRITE_CUBE F 
!      &EACH  
!       MD 50
!      &END EACH
      &END MO_CUBES
!   &E_DENSITY_CUBE
!   &END 
   &END PRINT
  &END DFT
  &SUBSYS
    &CELL
      ABC [angstrom] 12.42 12.42 12.42	
    &END CELL
    &COORD
 O         4.941613       -3.756985        3.917903
 O        -4.964038        1.375122        5.263374
 O         4.702291        2.287240        6.975625
 O        -2.231873        1.113166       -3.318229
 O        -5.199418        4.002757        4.115224
 O         5.301672        1.426968        2.222197
 O         4.052571       -5.719298       -1.805132
 O        -3.607231       -2.747414       -1.152814
 O         5.369958       -3.193170        1.389168
 O         2.296111        2.162853        8.070246
 O         5.098022       -3.660005       -3.723166
 O         0.908937       -2.988585        1.299345
 O        -0.153199       -5.606126       -4.755698
 O         5.051495        5.230173       -5.429004
 O         3.338407       -0.633148        5.005838
 O         0.224714        1.170364        6.429436
 O         1.985817       -3.879468        4.315448
 O        -3.076355        0.745250        3.397378
 O         1.829492       -1.062090       -5.044309
 O        -2.802431       -2.302752        1.630013
 O        -5.649591        5.179009       -3.318172
 O         3.520302        5.485042        2.405928
 O         4.670761       -1.347762       -2.613988
 O        -6.323738        5.363183       -0.838861
 O         2.966967       -1.199146        2.026624
 O         1.728018        1.273771        1.899764
 O        -3.151624       -5.397554       -1.184572
 O        -4.852924        3.275443        0.988020
 O         6.166749        0.214382       -4.265908
 O        -0.052458       -1.369662       -0.689182
 O         3.468688        2.937382       -0.147185
 O        -0.200982       -1.752404        3.550107
 O         3.068401       -4.804106        0.710045
 O        -0.552945       -4.583688       -2.143308
 O        -4.892762        0.194750        0.928295
 O         2.699793       -3.867585       -5.228445
 O        -2.784851        5.499463       -4.129146
 O        -4.913836       -5.436041        1.177488
 O         2.165472        4.275877        4.400504
 O        -2.559171        1.163346       -5.920021
 O         3.905669        1.898826        4.467836
 O        -4.614304       -2.804230        4.075341
 O        -0.214752        0.969283        3.686260
 O        -0.703277        4.609442        1.014596
 O        -0.459784       -2.594322       -4.680771
 O        -5.134163        2.239877       -2.502303
 O         6.489841       -1.779709       -0.730245
 O        -1.299199        0.994949       -0.552189
 O        -0.737660        3.919527       -2.447251
 O         6.081853       -1.024151        5.401515
 O        -3.742207       -5.074203       -6.053944
 O        -2.724962       -1.540424       -3.406679
 O         2.006444        4.155788       -1.970139
 O        -4.770888       -2.932339       -4.973936
 O        -0.544241        4.420110        3.895435
 O        -1.811988       -3.301335       -6.831804
 O        -0.789112       -5.005784        1.564541
 O         2.016391        5.273442       -5.192703
 O         2.373028        0.199925       -2.298629
 O        -2.785469        3.672321        5.703278
 O         1.719509       -3.198322       -2.642842
 O         5.437254        6.103193        4.493490
 O        -0.343026       -5.428936        4.213664
 O        -2.840488       -7.982330       -0.707708
 H         3.963291       -3.766970        3.911922
 H         5.151558       -4.587821        4.350285
 H        -5.510409        0.548571        5.084518
 H        -4.464417        1.243412        6.055831
 H         3.830855        2.279944        7.433568
 H         4.600473        1.955305        6.077705
 H        -1.927744        1.430305       -2.372389
 H        -2.210456        0.117708       -3.287593
 H        -5.747653        4.785615        4.123859
 H        -5.558006        3.235104        4.575274
 H         4.438514        1.364222        1.679858
 H         5.917860        0.711592        1.896737
 H         3.581963       -5.252209       -1.029532
 H         4.551733       -5.019864       -2.279749
 H        -3.321532       -2.094026       -1.806211
 H        -3.292905       -2.516077       -0.257431
 H         5.451097       -3.427964        2.430024
 H         4.532762       -3.615904        1.134093
 H         1.620330        1.841372        7.389284
 H         2.061558        1.833514        8.949932
 H         4.320631       -3.934191       -4.314539
 H         4.887978       -2.839641       -3.250947
 H         0.536643       -2.781615        2.209192
 H         0.521836       -1.978661       -0.028824
 H         0.593873       -6.244652       -4.955356
 H        -0.384690       -5.080291       -5.500412
 H         4.796439        4.300411       -5.236539
 H         5.647479        5.430817       -4.622769
 H         4.211037       -1.001918        5.335788
 H         3.595386        0.316989        4.944872
 H         0.406462        0.232327        6.440301
 H         0.006380        1.275059        5.457993
 H         1.445480       -3.093671        4.245511
 H         1.434153       -4.689140        4.166514
 H        -3.717264        1.049630        4.092636
 H        -3.493982        1.224503        2.666570
 H         2.399211       -0.711531       -5.781344
 H         1.913746       -0.439304       -4.299640
 H        -1.937133       -2.049984        2.016410
 H        -6.013621        5.380094       -2.430691
 H        -4.689220        5.637178       -3.290382
 H         3.869914        4.699530        1.888425
 H         2.841727        4.920664        2.898356
 H         5.282846       -0.748916       -3.210275
 H         5.364428       -1.703557       -1.899466
 H        -6.229976        4.569742       -0.250534
 H        -7.274440        5.713901       -0.946607
 H         3.842361       -1.608628        1.997312
 H         2.266922       -1.836555        1.830515
 H         2.103563        1.843032        1.173462
 H         2.289240        0.466975        2.016355
 H        -3.722341       -5.517902       -0.349999
 H        -3.492940       -4.585939       -1.525629
 H        -5.123172        3.585163        1.904533
 H        -5.188480        2.360690        0.900168
 H         6.545432        0.760633       -3.561791
 H         5.618453        0.904034       -4.753253
 H        -0.721020       -1.956074       -1.069487
 H        -3.424169       -2.638410        2.334006
 H         3.954720        2.359917       -0.790885
 H         2.865638        3.517282       -0.700269
 H         0.173620       -0.802182        3.607658
 H        -0.702191       -1.900192        4.386742
 H         3.157045       -5.579430        1.305912
 H         2.276166       -4.297409        1.056026
 H        -1.353514       -4.903829       -1.670774
 H        -0.684507       -5.011816       -3.018604
 H        -4.232724       -0.426194        1.269784
 H        -5.409245       -0.439759        0.250955
 H         2.397176       -3.821841       -6.190228
 H         2.496403       -2.912628       -4.944643
 H        -2.903607        4.705061       -4.770733
 H        -1.838190        5.417939       -4.009046
 H        -5.579881       -5.952985        0.655668
 H        -5.358779       -4.592774        1.240903
 H         1.966116        4.598395        5.318830
 H         1.187199        4.129000        4.059140
 H        -2.703846        1.326423       -4.962640
 H        -1.575672        1.032120       -6.015992
 H         3.223427        2.646164        4.266953
 H         4.515732        1.815920        3.729204
 H        -3.994921       -2.813477        4.835167
 H        -5.029079       -3.702546        4.054099
 H         0.402088        1.281466        2.988324
 H        -1.176073        0.981645        3.388505
 H        -0.892036        5.548800        0.867524
 H        -1.435467        4.349120        0.457041
 H        -0.048975       -3.095332       -3.963881
 H         0.253603       -1.977472       -4.959556
 H        -5.071596        3.154050       -2.843260
 H        -4.273116        1.865498       -2.674080
 H         7.234670       -2.363628       -0.956971
 H         6.134484       -2.394837        0.000334
 H        -1.555401        1.323517        0.357327
 H        -0.928356        0.055832       -0.524204
 H        -1.444061        3.977262       -1.800821
 H        -0.946461        3.222982       -3.028192
 H         6.235850       -1.864857        4.843142
 H         6.760026       -1.197637        6.105040
 H        -3.280664       -5.583444       -5.339808
 H        -2.906897       -4.562887       -6.280828
 H        -1.912322       -1.983987       -3.753379
 H        -3.474131       -1.871340       -3.981148
 H         0.984564        4.243530       -1.929229
 H         2.263584        5.082211       -1.970034
 H        -4.391686       -3.789459       -5.273427
 H        -5.610218       -3.315128       -4.635232
 H        -1.384524        4.047863        4.433394
 H        -0.733213        4.349191        2.887201
 H        -1.182454       -3.871203       -7.403254
 H        -1.207197       -3.162042       -5.999935
 H        -1.666358       -4.786033        1.128459
 H        -0.142380       -4.235339        1.401141
 H         2.904265        5.618432       -5.307950
 H         2.080009        4.406053       -4.796873
 H         1.630723       -0.251031       -1.834301
 H         3.020842       -0.477980       -2.375764
 H        -2.837774        2.703589        5.924173
 H        -3.709168        3.903287        5.383779
 H         2.215390       -3.927639       -2.960001
 H         1.002375       -3.729823       -2.174102
 H         5.190464        5.754210        5.351707
 H         4.705199        5.930336        3.848122
 H        -0.478851       -6.406093        4.426303
 H        -0.629410       -5.373089        3.222863
 H        -3.587996       -8.534308       -0.412400
 H        -3.130551       -7.441486       -1.487106
    &END COORD
!    &TOPOLOGY
!      COORD_FILE_NAME   ./pos74.xyz
!      COORD_FILE_FORMAT xyz
!    &END TOPOLOGY
!    &KIND Pb
!      BASIS_SET DZVP-MOLOPT-SR-GTH-q4
!      POTENTIAL GTH-PBE-q4
!    &END KIND
!    &KIND I
!      BASIS_SET DZVP-MOLOPT-SR-GTH-q7
!      POTENTIAL GTH-PBE-q7
!    &END KIND
    &KIND O
!      BASIS_SET DZVP-MOLOPT-SR-GTH-q6
     BASIS_SET AUX_FIT cFIT3
      BASIS_SET cc-TZ
      POTENTIAL GTH-PBE-q6
    &END KIND
    &KIND H
!      BASIS_SET DZVP-MOLOPT-SR-GTH-q1
      BASIS_SET AUX_FIT cFIT3
     BASIS_SET cc-TZ
      POTENTIAL GTH-PBE-q1
    &END KIND
    &KIND C
     BASIS_SET DZVP-MOLOPT-SR-GTH-q4
!      BASIS_SET cc-TZ
      POTENTIAL GTH-PBE-q4
      BASIS_SET AUX_FIT cFIT3 !SZV-MOLOPT-SR-GTH
    &END KIND
    &KIND N
!      BASIS_SET cc-TZ
      BASIS_SET DZVP-MOLOPT-SR-GTH-q5
      POTENTIAL GTH-PBE-q5
      BASIS_SET AUX_FIT cFIT3 !SZV-MOLOPT-SR-GTH
    &END KIND
  &END SUBSYS
&END FORCE_EVAL
&MOTION
 &MD
  STEPS	50000000
  TIMESTEP 0.48
  TEMPERATURE 350
  ENSEMBLE NVT
  &THERMOSTAT
    REGION MASSIVE
    TYPE NOSE
    &NOSE
      TIMECON 16.68
    &END NOSE
  &END THERMOSTAT
  &BAROSTAT
    PRESSURE 0.0
    TIMECON 300
  &END BAROSTAT
 &END MD
  &PRINT
   &TRAJECTORY
    &EACH
     MD 1
    &END EACH
   &END TRAJECTORY
   &CELL
    &EACH
     MD 1
    &END EACH
   &END CELL
   &VELOCITIES OFF
   &END VELOCITIES
   &FORCES OFF
   &END FORCES
   &RESTART_HISTORY
    &EACH
     MD 500
    &END EACH
   &END RESTART_HISTORY
   &RESTART
    BACKUP_COPIES 3
    &EACH
     MD 1
    &END EACH
   &END RESTART
  &END PRINT
&END MOTION
! &CONSTRAINT
!  &FIXED_ATOMS
!   LIST 1..382
!  &END FIXED_ATOMS
! &END CONSTRAINT
!&GEO_OPT
!  OPTIMIZER BFGS
!    &BFGS
!     TRUST_RADIUS 0.1
!    &END
!&END GEO_OPT
&GLOBAL
  PROJECT      water+I-.dyn
  RUN_TYPE     WFN_OPT
  PRINT_LEVEL  LOW
  EXTENDED_FFT_LENGTHS
!  WALLTIME     23:00:00
&END GLOBAL
!&EXT_RESTART
!RESTART_FILE_NAME /home/fambrosi/hydroxyl/water+I-.dyn-1.restart 
!&END EXT_RESTART

