&FORCE_EVAL
  METHOD         Quickstep
  STRESS_TENSOR  ANALYTICAL
!  &PRINT
!    &STRESS_TENSOR
!   &END STRESS_TENSOR
!  &END PRINT
  &DFT
	    BASIS_SET_FILE_NAME /usr/local/cp2k-6.1/data/BASIS_MOLOPT
	    POTENTIAL_FILE_NAME /usr/local/cp2k-6.1/data/GTH_POTENTIALS
	    BASIS_SET_FILE_NAME /usr/local/cp2k-6.1/data/BASIS_ADMM_MOLOPT
	    BASIS_SET_FILE_NAME /usr/local/cp2k-6.1/data/BASIS_ADMM
            BASIS_SET_FILE_NAME /usr/local/cp2k-6.1/data/BASIS_RI_cc-TZ
	    WFN_RESTART_FILE_NAME /home/fambrosi/hydroxyl/test-koopman/anion/gga5/r/el.pbe0/water+I-.dyn-RESTART.wfn 
!    CHARGE -1
     UKS
    &MGRID
      CUTOFF       800
      REL_CUTOFF    50
    &END MGRID
    &QS
     METHOD GPW
     EPS_DEFAULT 1.0E-12
    &END QS
    &SCF
      SCF_GUESS  RESTART
      MAX_SCF    50
      &OT
        MINIMIZER       CG
        PRECONDITIONER  FULL_SINGLE_INVERSE
      &END
      &OUTER_SCF
        MAX_SCF  50
      &END
!      &PRINT
!        &RESTART OFF
!        &END
!      &END
    &END SCF
    &AUXILIARY_DENSITY_MATRIX_METHOD
        METHOD BASIS_PROJECTION
        ADMM_PURIFICATION_METHOD MO_DIAG
     &END AUXILIARY_DENSITY_MATRIX_METHOD
   &XC
    &XC_FUNCTIONAL
   &PBE
   SCALE_X 0.53
   SCALE_C 1.0
   &END PBE
   &PBE_HOLE_T_C_LR
    CUTOFF_RADIUS 6.0
    SCALE_X 0.47
    &END PBE_HOLE_T_C_LR
    &END XC_FUNCTIONAL
   &HF
    &SCREENING
    EPS_SCHWARZ 1.0E-6
    SCREEN_ON_INITIAL_P FALSE
    &END SCREENING
    &INTERACTION_POTENTIAL
     POTENTIAL_TYPE TRUNCATED
    CUTOFF_RADIUS 6.0
    T_C_G_DATA  /usr/local/cp2k-6.1/data/t_c_g.dat
    &END INTERACTION_POTENTIAL
     &MEMORY
     MAX_MEMORY 10000
    EPS_STORAGE_SCALING 0.1
    &END MEMORY
    FRACTION 0.47
    &END HF
      ! non-local vdW part
      &vdW_POTENTIAL
         DISPERSION_FUNCTIONAL NON_LOCAL
         &NON_LOCAL
           TYPE RVV10
           PARAMETERS  5.3  0.0093
           KERNEL_FILE_NAME   /usr/local/cp2k-6.1/data/rVV10_kernel_table.dat
           CUTOFF      400
         &END NON_LOCAL
      &END vdW_POTENTIAL
    &END XC
    &PRINT
     &MO_CUBES
      NHOMO 1
      NLUMO 1
      WRITE_CUBE F
!      &EACH  
!       MD 50
!      &END EACH
      &END MO_CUBES
!   &E_DENSITY_CUBE
!   &END 
   &END PRINT
  &END DFT
  &SUBSYS
    &CELL
      ABC [angstrom] 12.42 12.42 12.42	
    &END CELL
    &COORD
 O         6.413274       -4.962172        3.076707
 O        -5.413993        1.504060        6.137335
 O         4.057909        1.717805        7.461241
 O        -3.526428       -0.095110       -1.516585
 O        -5.622940        4.176531        5.066997
 O         5.233957        1.696646        3.007103
 O         4.826591       -7.384490       -1.501749
 O        -3.656016       -4.089764       -0.814033
 O         5.198733       -2.871109        2.073009
 O         1.798064        2.627688        9.303013
 O         5.575062       -4.604018       -2.384922
 O         0.984767       -2.592130        1.483001
 O        -0.083332       -5.429616       -3.609393
 O         5.186391        4.045457       -4.275515
 O         3.211778       -1.627507        5.391220
 O         0.229739        0.723851        8.412443
 O         2.513473       -4.178752        5.885268
 O        -2.842970        0.153884        4.634754
 O         1.631306       -1.747294       -4.799027
 O        -3.051343       -2.662355        1.698971
 O        -4.669900        4.165885       -2.720388
 O         2.910023        5.802687        2.171523
 O         5.319885       -1.757697       -1.212808
 O        -7.372436        4.198236        1.243455
 O         3.673290       -0.716581        2.843057
 O         1.009976        1.407836        2.991382
 O        -5.031975       -6.566032       -0.513580
 O        -2.919618        1.924085        1.342981
 O         5.435649       -0.233792       -3.664395
 O         0.912170       -1.012373       -0.788303
 O         1.511248        2.430785       -0.006776
 O        -0.667483       -1.074215        2.871773
 O         3.194571       -4.253022        1.201389
 O         0.859245       -5.293316       -0.791202
 O        -4.896850        0.551082        2.787327
 O         3.499823       -4.999421       -4.103024
 O        -2.592967        5.439939       -4.280366
 O        -4.862001       -7.629724        2.164492
 O         1.733541        3.979122        5.385284
 O        -2.668855        1.886764       -5.481182
 O         2.977466        1.730737        4.979386
 O        -4.501565       -2.939405        4.272455
 O        -0.118863        1.497120        5.538840
 O         0.048874        5.141145        1.975206
 O        -0.768894       -2.997363       -4.684588
 O        -4.574627        1.577621       -3.503019
 O         7.049407       -1.122710        0.882860
 O        -1.207906        0.741309       -0.715241
 O        -0.865105        4.237236       -2.537672
 O         6.094555       -1.421703        6.189788
 O        -3.632616       -5.225641       -6.060248
 O        -3.122514       -2.257809       -2.905440
 O         2.385777        4.892660       -0.509864
 O        -5.375909       -3.623715       -4.467582
 O        -0.786282        4.375793        4.355527
 O        -1.710606       -3.246964       -7.459620
 O        -0.397534       -4.814836        1.877132
 O         1.793574        5.223057       -4.446004
 O         3.363776        0.384623       -0.136863
 O        -3.108820        4.204122        5.808583
 O         2.482425       -3.383961       -1.991312
 O         4.480070        6.386302        4.550951
 O         0.243458       -5.038316        4.390439
 O        -1.919345       -8.333438       -0.011877
 H         5.583645       -5.185768        3.522210
 H         6.864336       -5.820571        2.884458
 H        -5.611743        0.577285        6.207510
 H        -5.486698        1.780586        7.064723
 H         3.206272        1.749305        7.976108
 H         3.698937        1.603734        6.539760
 H        -2.642630        0.231216       -1.514206
 H        -3.398979       -0.980694       -1.963623
 H        -6.369237        4.812650        5.238758
 H        -5.911479        3.311738        5.224945
 H         4.854023        0.788324        2.798679
 H         6.168633        1.424393        3.182622
 H         5.029828       -6.409193       -1.718888
 H         4.842821       -7.918186       -2.278932
 H        -3.354691       -3.425498       -1.507669
 H        -3.651838       -3.673240        0.117364
 H         5.737078       -3.525663        2.495103
 H         4.453248       -3.402908        1.687161
 H         1.290932        1.813494        9.133091
 H         1.805432        2.841748       10.255475
 H         4.763069       -4.717226       -2.929629
 H         5.557118       -3.691006       -2.097585
 H         0.441228       -2.030634        2.170850
 H         0.793588       -1.602319       -0.000232
 H         0.361965       -6.243382       -3.971319
 H        -1.018244       -5.671577       -3.402265
 H         4.718259        3.207858       -4.545853
 H         6.062646        3.868225       -3.903912
 H         4.204290       -1.705027        5.626850
 H         3.253811       -1.037030        4.620039
 H         0.532590       -0.236679        8.503881
 H         0.177083        0.951838        7.504498
 H         2.695516       -3.392654        5.390168
 H         1.708674       -4.591548        5.421070
 H        -2.540242       -0.687194        5.036589
 H        -2.931111        0.746845        5.469053
 H         1.869572       -1.356412       -5.668250
 H         2.515749       -2.059682       -4.517386
 H        -2.422518       -1.950440        1.607981
 H        -4.822663        4.866373       -1.988993
 H        -4.124407        4.724726       -3.369413
 H         3.560247        5.151861        1.773282
 H         1.944337        5.553030        2.017206
 H         5.356840       -1.180812       -1.980498
 H         6.061545       -1.556627       -0.550794
 H        -7.337042        3.248211        1.510948
 H        -7.297948        4.262082        0.251885
 H         4.087098       -1.639815        2.767124
 H         3.195824       -0.602871        1.990975
 H         1.101362        1.450375        2.015667
 H         1.873848        1.644634        3.391524
 H        -4.931554       -6.919621        0.359867
 H        -4.829498       -5.603973       -0.509653
 H        -2.796300        1.199826        0.695719
 H        -3.438686        1.489504        2.036855
 H         6.402387       -0.014647       -3.505891
 H         5.098007        0.604815       -4.082344
 H         1.121426       -1.621707       -1.557362
 H        -3.196684       -2.847981        2.615923
 H         2.237116        1.870265        0.030054
 H         1.844718        3.348552        0.085727
 H        -0.365756       -0.210017        3.142631
 H        -1.168958       -1.431929        3.656391
 H         3.058669       -5.151128        1.640306
 H         2.467481       -3.695210        1.508711
 H         0.347299       -4.992640       -0.006438
 H         0.286890       -5.404823       -1.561871
 H        -4.579201        0.077873        3.577417
 H        -5.107779       -0.071535        2.042643
 H         3.425906       -4.525901       -4.932443
 H         2.837123       -4.496654       -3.464314
 H        -2.741810        4.806350       -5.180103
 H        -1.939362        5.038023       -3.631245
 H        -5.816699       -7.878126        2.142543
 H        -4.493332       -7.827140        3.047597
 H         1.744039        4.329653        6.291580
 H         0.795327        4.081276        5.099212
 H        -3.287287        1.888206       -4.720124
 H        -1.762546        1.781017       -5.174493
 H         2.470565        2.667563        5.038490
 H         3.825331        1.977577        4.441162
 H        -3.817672       -3.376839        4.821126
 H        -5.008432       -3.733594        3.910057
 H         0.666007        1.399859        4.993388
 H        -0.786310        0.963275        5.110201
 H        -0.252902        6.159257        1.955699
 H        -0.293080        4.718347        1.212234
 H        -0.588186       -3.998559       -4.462653
 H         0.100632       -2.597174       -4.895647
 H        -4.638814        2.478685       -2.988205
 H        -4.216358        0.922368       -2.832390
 H         7.897960       -1.607216        0.968520
 H         6.326426       -1.709639        1.356646
 H        -0.490539        0.076299       -0.728172
 H        -0.804676        1.453636       -0.152339
 H        -1.225138        4.036272       -1.621512
 H        -0.211151        3.564780       -2.797683
 H         6.929719       -1.719407        5.707081
 H         6.169805       -1.691591        7.138577
 H        -2.860700       -4.862607       -6.598533
 H        -3.311523       -5.534926       -5.204016
 H        -2.298915       -2.445574       -3.453054
 H        -3.783003       -2.795443       -3.397901
 H         1.917062        5.707191       -0.656542
 H         3.335766        5.086134       -0.829802
 H        -4.843781       -4.154785       -5.183273
 H        -5.681317       -4.306387       -3.720818
 H        -1.785673        4.262109        4.546735
 H        -0.623759        4.462508        3.387836
 H        -0.951193       -3.812139       -7.785045
 H        -1.503570       -3.185602       -6.456851
 H        -1.332365       -4.617405        2.079383
 H         0.430623       -3.415609        1.511348
 H         2.622255        5.768374       -4.390914
 H         1.948539        4.389995       -3.947306
 H         2.554976        0.046989       -0.597636
 H         4.109126       -0.036807       -0.548423
 H        -3.050480        3.212939        6.118855
 H        -4.029499        4.272714        5.502327
 H         3.133619       -2.803450       -1.567983
 H         2.083190       -3.965813       -1.326561
 H         3.940046        6.980030        5.086119
 H         3.793107        6.032968        3.873744
 H         0.154922       -5.952685        4.864033
 H         0.155962       -5.185256        3.383747
 H        -2.472516       -8.915562        0.455370
 H        -2.604734       -7.737530       -0.271356
    &END COORD
!    &TOPOLOGY
!      COORD_FILE_NAME   ./pos74.xyz
!      COORD_FILE_FORMAT xyz
!    &END TOPOLOGY
!    &KIND Pb
!      BASIS_SET DZVP-MOLOPT-SR-GTH-q4
!      POTENTIAL GTH-PBE-q4
!    &END KIND
!    &KIND I
!      BASIS_SET DZVP-MOLOPT-SR-GTH-q7
!      POTENTIAL GTH-PBE-q7
!    &END KIND
    &KIND O
!      BASIS_SET DZVP-MOLOPT-SR-GTH-q6
     BASIS_SET AUX_FIT cFIT3
      BASIS_SET cc-TZ
      POTENTIAL GTH-PBE-q6
    &END KIND
    &KIND H
!      BASIS_SET DZVP-MOLOPT-SR-GTH-q1
      BASIS_SET AUX_FIT cFIT3
     BASIS_SET cc-TZ
      POTENTIAL GTH-PBE-q1
    &END KIND
    &KIND C
     BASIS_SET DZVP-MOLOPT-SR-GTH-q4
!      BASIS_SET cc-TZ
      POTENTIAL GTH-PBE-q4
      BASIS_SET AUX_FIT cFIT3 !SZV-MOLOPT-SR-GTH
    &END KIND
    &KIND N
!      BASIS_SET cc-TZ
      BASIS_SET DZVP-MOLOPT-SR-GTH-q5
      POTENTIAL GTH-PBE-q5
      BASIS_SET AUX_FIT cFIT3 !SZV-MOLOPT-SR-GTH
    &END KIND
  &END SUBSYS
&END FORCE_EVAL
&MOTION
 &MD
  STEPS	50000000
  TIMESTEP 0.48
  TEMPERATURE 350
  ENSEMBLE NVT
  &THERMOSTAT
    REGION MASSIVE
    TYPE NOSE
    &NOSE
      TIMECON 16.68
    &END NOSE
  &END THERMOSTAT
  &BAROSTAT
    PRESSURE 0.0
    TIMECON 300
  &END BAROSTAT
 &END MD
  &PRINT
   &TRAJECTORY
    &EACH
     MD 1
    &END EACH
   &END TRAJECTORY
   &CELL
    &EACH
     MD 1
    &END EACH
   &END CELL
   &VELOCITIES OFF
   &END VELOCITIES
   &FORCES OFF
   &END FORCES
   &RESTART_HISTORY
    &EACH
     MD 500
    &END EACH
   &END RESTART_HISTORY
   &RESTART
    BACKUP_COPIES 3
    &EACH
     MD 1
    &END EACH
   &END RESTART
  &END PRINT
&END MOTION
! &CONSTRAINT
!  &FIXED_ATOMS
!   LIST 1..382
!  &END FIXED_ATOMS
! &END CONSTRAINT
!&GEO_OPT
!  OPTIMIZER BFGS
!    &BFGS
!     TRUST_RADIUS 0.1
!    &END
!&END GEO_OPT
&GLOBAL
  PROJECT      water+I-.dyn
  RUN_TYPE     WFN_OPT
  PRINT_LEVEL  LOW
  EXTENDED_FFT_LENGTHS
!  WALLTIME     23:00:00
&END GLOBAL
!&EXT_RESTART
!RESTART_FILE_NAME /home/fambrosi/hydroxyl/water+I-.dyn-1.restart 
!&END EXT_RESTART

