&FORCE_EVAL
  METHOD         Quickstep
  STRESS_TENSOR  ANALYTICAL
!  &PRINT
!    &STRESS_TENSOR
!   &END STRESS_TENSOR
!  &END PRINT
  &DFT
	    BASIS_SET_FILE_NAME /usr/local/cp2k-6.1/data/BASIS_MOLOPT
	    POTENTIAL_FILE_NAME /usr/local/cp2k-6.1/data/GTH_POTENTIALS
	    BASIS_SET_FILE_NAME /usr/local/cp2k-6.1/data/BASIS_ADMM_MOLOPT
	    BASIS_SET_FILE_NAME /usr/local/cp2k-6.1/data/BASIS_ADMM
            BASIS_SET_FILE_NAME /usr/local/cp2k-6.1/data/BASIS_RI_cc-TZ
	    WFN_RESTART_FILE_NAME /home/fambrosi/hydroxyl/water+I-.dyn-RESTART.wfn 
!    CHARGE +1
     UKS
    &MGRID
      CUTOFF       800
      REL_CUTOFF    50
    &END MGRID
    &QS
     METHOD GPW
     EPS_DEFAULT 1.0E-12
    &END QS
    &SCF
      SCF_GUESS  RESTART
      MAX_SCF    50
      &OT
        MINIMIZER       CG
        PRECONDITIONER  FULL_SINGLE_INVERSE
      &END
      &OUTER_SCF
        MAX_SCF  50
      &END
!      &PRINT
!        &RESTART OFF
!        &END
!      &END
    &END SCF
    &AUXILIARY_DENSITY_MATRIX_METHOD
        METHOD BASIS_PROJECTION
        ADMM_PURIFICATION_METHOD MO_DIAG
     &END AUXILIARY_DENSITY_MATRIX_METHOD
   &XC
    &XC_FUNCTIONAL
   &PBE
   SCALE_X 0.60
   SCALE_C 1.0
   &END PBE
   &PBE_HOLE_T_C_LR
    CUTOFF_RADIUS 4.5
    SCALE_X 0.40
    &END PBE_HOLE_T_C_LR
    &END XC_FUNCTIONAL
   &HF
    &SCREENING
    EPS_SCHWARZ 1.0E-6
    SCREEN_ON_INITIAL_P FALSE
    &END SCREENING
    &INTERACTION_POTENTIAL
     POTENTIAL_TYPE TRUNCATED
    CUTOFF_RADIUS 4.5
    T_C_G_DATA  /usr/local/cp2k-6.1/data/t_c_g.dat
    &END INTERACTION_POTENTIAL
     &MEMORY
     MAX_MEMORY 10000
    EPS_STORAGE_SCALING 0.1
    &END MEMORY
    FRACTION 0.40
    &END HF
      ! non-local vdW part
      &vdW_POTENTIAL
         DISPERSION_FUNCTIONAL NON_LOCAL
         &NON_LOCAL
           TYPE RVV10
           PARAMETERS  5.3  0.0093
           KERNEL_FILE_NAME   /usr/local/cp2k-6.1/data/rVV10_kernel_table.dat
           CUTOFF      400
         &END NON_LOCAL
      &END vdW_POTENTIAL
    &END XC
    &PRINT
!     &MO_CUBES
!      NHOMO 1
!      NLUMO 1
!      WRITE_CUBE 
!      &EACH  
!       MD 50
!      &END EACH
!      &END MO_CUBES
!   &E_DENSITY_CUBE
!   &END 
   &END PRINT
  &END DFT
  &SUBSYS
    &CELL
      ABC [angstrom] 9.8149 9.8149 9.8149 
    &END CELL
    &COORD
  O         3.2749757142        5.4565674276       -5.8514098054
  O         6.2205834568       -3.4168733638       -3.0226657565
  O         3.2991803400        3.8657723324       -0.2995574374
  O        -0.0908278268        1.4539970323       -0.1877535510
  O         0.3835267608       -4.6160819804        6.8767783531
  O        11.3580649992       -2.5102129957        7.9312662478
  O         6.8306226787        1.6520261991       -2.0106248545
  O         6.4749665309       -0.2087009518       -5.0690367781
  O         0.6583894190        4.9331918348       13.6279467852
  O        -5.2146654187        0.3851188833       -1.8210357785
  O         0.9256020177        6.6257000175        0.6561083012
  O         3.8940800982        0.0075938192        5.5144867690
  O        -2.8995812341        3.4735121089       -3.9070095273
  O        -0.3588682956       -5.5392105674      -10.2606590138
  O        -4.3339867885        3.6300964529       -6.1354843011
  O        -6.1197209584       -0.8241540794        1.9711792511
  O        -7.0540031018        1.1364758261       10.2771658599
  O         6.9984260008       -8.0283916938        2.5948556827
  O         1.6401977457       11.5030456714        5.6681130807
  O       -11.9136329181       -0.4447269039        0.9733493793
  O        -8.9406928956       -9.7065342444       -2.2108432500
  O         1.1438513297       -0.0635830670       12.9277994351
  O         3.8276911562       -2.6511479713        6.0160857044
  O         3.7259155482       -3.9552011601        1.4823055258
  O         8.1498957504       -0.6983751255       -3.0262579620
  O        -6.9093708358       -6.0370262973       -2.8211576804
  O        -4.4652583122       -2.1566813260        3.4206151008
  O         6.1718822306       -3.5185755187        0.6744289497
  O         8.2634207523        6.9347414381        5.1847284102
  O        -0.9256285840       -2.1084872203        2.8290669224
  O        -3.1210786666       -1.6807831149       -1.2046191540
  O         9.6855141092       -7.4600397998       -6.0623125960
  H         2.3352166994        5.3236480660       -5.5912351411
  H         3.6804754920        6.1230180186       -5.2290324650
  H         6.8281336384       -3.2096695528       -3.7777564352
  H         6.5632116207       -3.0655276463       -2.1751557048
  H         3.3318953932        3.0063397934        0.0550729688
  H         3.5241788759        4.4663618442        0.4666113252
  H        -0.7428830389       -8.8830318143        0.3606771089
  H        -0.4781960181        2.3365070879       -0.3415662419
  H         1.0470011118       -5.2961837305        6.6153461298
  H         0.9425590300       -3.8494567261        7.0196136232
  H        10.8884521761       -1.7309567417        7.6846913211
  H        11.1926024027       -2.7492727702        8.8162417636
  H         5.9560460612        1.2217818061       -1.8380062178
  H         7.4569193858        0.9424057618       -2.1584894478
  H         5.5940919626       -0.0492075208       -4.6962439692
  H         0.3280895191        3.9868844422       13.8083137006
  H         0.1046285464        5.4337150234       13.1025376096
  H        -5.5443727829        0.2452421275       -2.7202126184
  H        -5.9477642135        0.5409521907       -1.2323457039
  H         1.8000449583        6.5118835468        0.9208127718
  H         0.4820010201        7.0863356250        1.3267064758
  H         3.7121826236       -0.9114406260        5.3712950320
  H         3.2104292686        0.6154864746        5.0397042053
  H        -2.6736984202        4.3244282785       -3.5022212489
  H        -2.9508416306        2.7820413831       -3.2211150564
  H        -0.1813583816       -5.2306262487      -11.1336493354
  H         0.1912736872       -5.0053914521        0.1005131825
  H        -5.1693739812        4.1164668773       -6.2731202161
  H        -4.1685478062        3.5495578058       -5.2023603497
  H        -6.1162706726       -1.4920847731        1.2747864950
  H        -5.4928235952       -1.2015870304       -7.2238599282
  H        -6.5086335939        0.6131746833       10.7522395135
  H        -7.9369483324        0.9336804938       10.5479455754
  H         6.6050286278       -8.5968603931        3.2464151330
  H         6.5239022998       -7.1649358102        2.7674352943
  H         2.2380058330       12.2536984536        6.0304049091
  H         0.9386931667       11.7896371485       -4.8365690552
  H        -2.6596543833        0.3210858558        1.0585502641
  H       -12.2196906230       -0.9470686407        0.1096706864
  H        -8.7275336195       -9.1530058176       -2.9751737422
  H        -9.2838030968       -9.1660513130       -1.4748892676
  H         0.4045424195       -0.6868776259       12.7067675572
  H         1.9822657576       -0.4272292861       12.6202179466
  H         3.3517865507       -2.7458752343        6.8434160198
  H         4.7427317261       -2.9226507354        6.2602979697
  H         3.6528293135       -4.0762642740        2.4053822834
  H         4.6682608601      -13.6506606994        1.2106537613
  H         9.0755820290       -0.5890317325       -2.8356421269
  H         7.1571910503       -0.2157331578       -4.3763583689
  H        -5.9807409673       -5.9900536010       -3.1816022720
  H        -6.8987303323        4.0210281437       -1.9075075367
  H         6.0111190582       -2.6534086147        2.9272881355
  H        -4.0395485631       -1.4865470292        3.9958371968
  H         6.3812727258       -2.8470880143       -0.0237226193
  H         6.8119219841       -4.2166484871        0.6075749295
  H         8.5003854177        7.7688547237        5.5780562888
  H         8.8885700385       16.0741238741        5.4765229845
  H        -1.5804012266       -1.5744678722        2.3563243522
  H        -1.2540045405       -2.4517623944        3.6373065922
  H        -2.1623259918       -1.1414315796       -2.2305411923
  H        -3.9612840373       -1.2209451676      -11.0602168406
  H         8.7227871785       -7.4809705659        3.5961473323
  H        10.0333269316       -8.0172690884        3.0501181540
    &END COORD
!    &TOPOLOGY
!      COORD_FILE_NAME   ./pos74.xyz
!      COORD_FILE_FORMAT xyz
!    &END TOPOLOGY
!    &KIND Pb
!      BASIS_SET DZVP-MOLOPT-SR-GTH-q4
!      POTENTIAL GTH-PBE-q4
!    &END KIND
!    &KIND I
!      BASIS_SET DZVP-MOLOPT-SR-GTH-q7
!      POTENTIAL GTH-PBE-q7
!    &END KIND
    &KIND O
!      BASIS_SET DZVP-MOLOPT-SR-GTH-q6
     BASIS_SET AUX_FIT cFIT3
      BASIS_SET cc-TZ
      POTENTIAL GTH-PBE-q6
    &END KIND
    &KIND H
!      BASIS_SET DZVP-MOLOPT-SR-GTH-q1
      BASIS_SET AUX_FIT cFIT3
     BASIS_SET cc-TZ
      POTENTIAL GTH-PBE-q1
    &END KIND
    &KIND C
     BASIS_SET DZVP-MOLOPT-SR-GTH-q4
!      BASIS_SET cc-TZ
      POTENTIAL GTH-PBE-q4
      BASIS_SET AUX_FIT cFIT3 !SZV-MOLOPT-SR-GTH
    &END KIND
    &KIND N
!      BASIS_SET cc-TZ
      BASIS_SET DZVP-MOLOPT-SR-GTH-q5
      POTENTIAL GTH-PBE-q5
      BASIS_SET AUX_FIT cFIT3 !SZV-MOLOPT-SR-GTH
    &END KIND
  &END SUBSYS
&END FORCE_EVAL
&MOTION
 &MD
  STEPS	50000000
  TIMESTEP 0.48
  TEMPERATURE 350
  ENSEMBLE NVT
  &THERMOSTAT
    REGION MASSIVE
    TYPE NOSE
    &NOSE
      TIMECON 16.68
    &END NOSE
  &END THERMOSTAT
  &BAROSTAT
    PRESSURE 0.0
    TIMECON 300
  &END BAROSTAT
 &END MD
  &PRINT
   &TRAJECTORY
    &EACH
     MD 1
    &END EACH
   &END TRAJECTORY
   &CELL
    &EACH
     MD 1
    &END EACH
   &END CELL
   &VELOCITIES OFF
   &END VELOCITIES
   &FORCES OFF
   &END FORCES
   &RESTART_HISTORY
    &EACH
     MD 500
    &END EACH
   &END RESTART_HISTORY
   &RESTART
    BACKUP_COPIES 3
    &EACH
     MD 1
    &END EACH
   &END RESTART
  &END PRINT
&END MOTION
! &CONSTRAINT
!  &FIXED_ATOMS
!   LIST 1..382
!  &END FIXED_ATOMS
! &END CONSTRAINT
!&GEO_OPT
!  OPTIMIZER BFGS
!    &BFGS
!     TRUST_RADIUS 0.1
!    &END
!&END GEO_OPT
&GLOBAL
  PROJECT      water+I-.dyn
  RUN_TYPE     MD
  PRINT_LEVEL  LOW
  EXTENDED_FFT_LENGTHS
!  WALLTIME     23:00:00
&END GLOBAL
&EXT_RESTART
RESTART_FILE_NAME /home/fambrosi/hydroxyl/water+I-.dyn-1.restart 
&END EXT_RESTART

