O  H 
 1.0000000000000000
     9.8149143129328440    0.0000000000000000    0.0000000000000000
     0.0000000000000000    9.8149143129328440    0.0000000000000000
     0.0000000000000000    0.0000000000000000    9.8149143129328440
 O   H  
  32  63
Cartesian
  3.3316259076999999  4.9923832726999997 -5.6601001776000004
  5.7231011692999996 -3.1909874762000001 -2.8019736128999999
  3.0600310904999999  3.7582917775000002 -0.6403273998000000
  0.2024026644000000  1.7342850931000000 -0.2157675993000000
 -0.0641322094000000 -4.5759195285000001  6.2401437165999996
 11.1747011052000005 -2.3935767799000001  7.9265059245999998
  6.5753950899999998  1.9322843961000000 -1.5914944347000000
  6.6115155680999997  0.1671441587000000 -4.4704056441000004
  1.0337175877000000  4.5143274059999996 12.7406942361999995
 -5.1651532391000003  0.3227284546000000 -0.8723114231000000
  0.8570885418000000  6.3943614533000002  0.7662509457000000
  3.9136305284000001  0.1504465644000000  5.9946465637999999
 -3.9211507121000002  3.8386281589000002 -3.3360033968999998
 -0.6681360823000000 -5.2793608864000001 -10.2738727806999997
 -4.0520095146999999  4.2196978839000003 -5.9421532167000004
 -6.5807721306999998 -1.1271915982000000  2.1747016923000002
 -7.0938030378999999  1.2372174495999999 10.4457231919000009
  6.6099682081999998 -8.0329057584000001  3.1139800687000001
  1.6295638958000001 11.4301454205000006  5.4113704058999996
 -11.7371635360000006  0.2135366671000000  1.3437048240000000
 -8.9593467751000002 -9.5929089984000004 -2.3957073151000001
  0.3898669556000000 -0.4077194734000000 12.7500751563999994
  3.2304211644000000 -2.6841032666000002  5.9676232641000002
  3.3233324287000001 -4.3151844903000001  1.5647941441000000
  8.1690753612999991 -0.5325979575000001 -2.1561160526999998
 -7.1920888904000000 -6.0723019750000002 -3.2425450740000001
 -4.2814032921000003 -2.2121378704999999  3.5543351566000001
  6.1918638321000001 -4.2502994822000000  1.5822866479000000
  7.9672259078999996  7.3558330660999998  5.2277024730999999
 -1.1441260266000000 -2.6530357769999999  2.4149680938000002
 -3.4998143944000000 -1.6430932369000000 -0.4514569772000000
  9.4117326011000007 -7.5885499066000000 -6.7035335444999999
  2.4514691279999998  4.7016242175000000 -5.9239514060999996
  3.1651610621000001  5.7686047299999998 -5.0844711915999996
  6.5826378231999998 -2.9954219450999999 -3.1731918052000001
  5.7864230248000004 -2.9216933479999998 -1.9104752893000001
  2.8683689718999998  2.9119485637999998 -0.2685681901000000
  3.0656645078000002  4.4077858491999997  0.0874202904000000
 -0.5813476451000000 -8.4998124871999998  0.2870727376000000
 -0.1119102537000000  2.6783014922000001 -0.1612052200000000
  0.4910236893000000 -5.3557710324999999  5.9089682976000004
  0.5643871020000000 -3.8970826018000002  6.4262938858999998
 11.0945117767999992 -1.3768382603000000  7.9582653490000004
 11.1413086590999999 -2.9118774636000002  8.7149560121000000
  5.8255455818000001  1.6346653819000001 -1.0352012912999999
  7.2572794007999999  1.1976448341000001 -1.5864412937000001
  5.6337704648000004  0.2030638211000000 -4.3154363787000003
  0.4842943206000000  3.7320072705000000 12.9520207064000008
  0.5947565073000000  4.9640639347000004 12.0120570070999992
 -5.3298074191999998  0.4975758683000000 -1.8313274605000001
 -6.0042504439000002  0.5284150415000000 -0.3927000249000000
  1.7223924343999999  6.1525862414999999  1.1866532453000000
  0.1883384676000000  6.6568995124999999  1.4060832905000000
  3.5661317288999999 -0.7292654837000000  5.7432631087999999
  3.1980687452000001  0.7658679155000000  5.7547741353999999
 -3.7848919666000000  4.6671928897999999 -2.9418293293000000
 -3.7534805008999998  3.1673750358000001 -2.6432311076000001
 -0.6533701122000000 -4.9037309753000002 -11.1444005491000002
 -0.0699398095000000 -4.7565223464999997  0.0967859345000000
 -4.9630967820000000  4.5653977339000003 -5.7300176727999999
 -3.8918761625000000  3.9445791603000000 -5.0186936501000003
 -6.2700597893000003 -1.8516567266999999  1.6439031234000001
 -5.8604634453999997 -1.1530751140000000 -6.9769091491999999
 -6.9414692139999996  1.0395592361999999 11.3569065741999999
 -8.0810924468999996  1.1388265534999999 10.3851627829000002
  6.5593083464999999 -8.5350217624999996  3.9114012288000000
  6.0896680329999997 -7.2467827679000001  3.1358453141000000
  1.8341215161000000 12.3363863848000008  5.7313441952000002
  1.1076982350000000 11.3414378529000004 -5.2109827942000004
 -2.6441922716000001  0.6564830066000000  1.7638911413000000
 -12.1455300467999994 -0.4165800463000000  0.7257450660000000
 -8.9459603924000000 -9.1373817551999998 -3.2734150277000000
 -9.2897919493999996 -8.9395406714999996 -1.7563535583000001
 -0.3325223118000000 -0.9250643324000000 12.3284258621999996
  1.1613982367000000 -0.8748030327000000 12.5177862082000004
  2.5422813896999998 -2.6178218702999998  6.6491673700999998
  4.0691194626999998 -3.0587799045000001  6.2880123841000000
  3.2847503212000002 -4.4253695600000000  2.5058881522999998
  4.2543282435999998 -14.0894605431999995  1.4162792258000001
  9.1172394065999995 -0.3312535050000000 -2.2363356909999998
  6.8827974050999998  0.5092103148000000 -3.6457498940000002
 -6.2639428587000001 -5.8771744581999998 -3.4546462482000000
 -7.1679059274999997  3.7830308292999999 -2.2756459731000001
  5.9608105390999997 -3.0333106343999998  3.8593429199000000
 -3.7932954668000001 -1.5372692866000000  4.0363692262999997
  6.7458343666999996 -4.7780991682999998  1.0096398702000000
  6.1114447389000004 -4.7677317996999999  2.4044489552999999
  7.9510806587999996  8.2344255940999993  5.6145391293999998
  8.6484355646999997 16.7179534121000017  5.7620434197000003
 -1.8410524152000001 -3.1560192012999999  1.9005273657999999
 -1.3875296040000000 -2.7324888773999998  3.3271618004999999
 -1.8185860367000000 -1.3853346005000000 -1.6757604387000000
 -4.2906122738999999 -1.0959145023000001 -10.4088472370999998
  8.4145263524999994 -7.7010843156000002  3.1258813108000001
  9.7699439769000005 -8.4159149881000008  2.7394904009999999
