 O  H 
 1.0000000000000000
     9.8149143129328440    0.0000000000000000    0.0000000000000000
     0.0000000000000000    9.8149143129328440    0.0000000000000000
     0.0000000000000000    0.0000000000000000    9.8149143129328440
 O   H  
  32  63
Cartesian
      3.0928583343        4.8740448495       -5.6273334554  O   
      5.5355245502       -2.5165842026       -3.1019172366  O   
      3.6680880811        2.9574092936       -0.9468318703  O   
     -0.4569387893        1.6840495485       -0.6483756975  O   
     -0.4538379302       -4.2693656256        7.1224060357  O   
     10.9465520959       -2.6427183301        8.5937751703  O   
      6.4137532372        2.7886768265       -1.3636914401  O   
      5.6737261680        0.7052296469       -4.4053826178  O   
      0.8134626361        4.2894248587       12.3552583381  O   
     -6.9713619070       -0.3791183808       -1.3593409623  O   
      2.2203065738        6.2573110089        1.1835373291  O   
      3.0545196819       -0.0478556580        5.8184954946  O   
     -3.8837640151        4.3441097415       -3.5101305003  O   
     -1.5042188196       -5.5829115423      -10.2402363283  O   
     -3.8397360375        4.6518002149       -5.9669774488  O   
     -6.5012258465       -1.1539602484        2.0270501186  O   
     -7.9147359596        1.1795385539       10.1853069906  O   
      6.8365817282       -7.7246562060        3.2493825726  O   
      0.7538768214       11.1573014298        5.7676034399  O   
    -12.7381022755        0.4489102049        1.1038348870  O   
    -10.0288103056      -10.4326849499       -2.3350653246  O   
      0.3968189541       -0.8646691067       13.1113898738  O   
      2.8726886439       -2.7954972826        5.8610789486  O   
      4.5914504934       -4.3993110643        0.0437156352  O   
      7.1322845707       -0.0121014708       -1.7041414446  O   
     -7.8583007362       -6.0243062843       -3.3524273753  O   
     -4.4499928484       -1.9419474094        3.6839118241  O   
      7.0337398045       -4.1595882538        1.6186269878  O   
      7.8031692502        7.3789481248        5.6064436012  O   
     -0.8764641945       -2.9871248203        2.8237640884  O   
     -5.0451082915       -1.6651090920       -0.2119018341  O   
      9.5279316896       -7.8768159574       -6.4613581509  O   
      2.3820887366        4.6671498032       -6.2409977490  H   
      2.8459820365        5.8017622037       -5.3492404187  H   
      6.3893347920       -2.3458794879       -3.4578675987  H   
      5.5822669446       -2.4297288987       -2.1446345173  H   
      3.0851318813        2.4286549243       -0.3539599645  H   
      3.5703256933        3.8718133226       -0.6000466646  H   
     -1.2157629981       -8.5887006658       -0.1988153701  H   
     -0.7604434684        2.6231218198       -0.5771022497  H   
     -0.0012977884       -4.9451807352        6.6588991937  H   
      0.1957701152       -3.6527805668        7.5167773431  H   
     11.4924988810       -1.7735339535        8.6223562926  H   
     11.1549825735       -2.9967173762        9.5277089146  H   
      5.4358449180        2.6353221156       -1.2647645983  H   
      6.8216199260        1.9086198697       -1.5128687903  H   
      4.6752977890        0.5928543901       -4.2833067237  H   
      0.6099077662        3.3599566784       12.4201581480  H   
      0.0739379629        4.8593361522       12.6770390855  H   
     -6.7336053952       -0.0483045397       -2.2368104290  H   
     -7.5286949788        0.2886589065       -1.0466775189  H   
      2.9968727580        5.6224655058        1.0222530021  H   
      1.5892596242        5.6898437265        1.6312510055  H   
      2.8134727061       -0.9947787844        5.6391578919  H   
      2.1866769874        0.3897536785        5.4700942374  H   
     -4.1391323240        5.0977164677       -2.8824539050  H   
     -3.7469828263        3.5119090813       -2.9493432131  H   
     -2.2469653701       -6.0938331116      -10.4751225233  H   
     -1.3451550902       -5.0223467298       -1.2476262168  H   
     -4.7880757393        4.5785564104       -5.9892993100  H   
     -3.5164137210        4.5999920536       -5.0467708443  H   
     -6.7791652695       -2.1050552629        2.1528696456  H   
     -5.7182030886       -1.2428445198       -7.2123124513  H   
     -7.7376346717        0.6257318619       11.0169391227  H   
     -8.8529848974        1.4808685013       10.1247916247  H   
      6.2543397735       -8.3266437533        3.7416336703  H   
      6.5125171045       -6.8473267545        3.4718839955  H   
      1.2892926418       11.8395786538        6.1512737577  H   
      0.2930462205       11.3763257085       -4.8923950985  H   
     -3.0557697301        1.0717067689        1.8319704521  H   
    -13.6039011414        0.1204988378        0.8201153888  H   
     -9.8482965033       -9.6988516863       -2.9772861309  H   
     -9.3965754219      -11.1479583550       -2.5377774567  H   
     -0.0460890000       -1.5650939579       12.5654792015  H   
      1.3495846987       -0.9266205838       12.9742979938  H   
      2.4275307773       -2.8470928857        6.6892646733  H   
      3.8463958160       -2.7795636823        5.9866063736  H   
      5.2941967020       -4.3953548189        0.7062236254  H   
      4.4998729442      -13.2620611403       -0.1495473732  H   
      7.9914033391       -0.4439540933       -1.5972732089  H   
      5.9677308888        0.8484294032       -3.4879489366  H   
     -7.3936467822       -5.7925885105       -4.1964137001  H   
     -7.2419154767        3.7058612665       -2.6302928376  H   
      6.0484314947       -2.7108522299        3.7139843101  H   
     -3.9732051082       -1.1681792027        4.1480698082  H   
      7.5570081030       -4.6700659394        0.9890284390  H   
      6.8377863044       -4.7460519550        2.3974257607  H   
      8.4210881143        7.9154518104        6.0944423158  H   
      7.9703282618       16.3378113945        5.8870588820  H   
     -1.7414116055       -3.0725973053        2.2962379613  H   
     -1.1382125722       -2.7056081033        3.7194250181  H   
     -3.3857030287       -0.4206168336       -1.2449806053  H   
     -5.8764932695       -1.1194982990      -10.3045321615  H   
      8.5579047653       -7.8071010604        3.3342328212  H   
      9.6731725499       -8.7505710119        2.9418505128  H   
