O  H 
 1.0000000000000000
     9.8149143129328440    0.0000000000000000    0.0000000000000000
     0.0000000000000000    9.8149143129328440    0.0000000000000000
     0.0000000000000000    0.0000000000000000    9.8149143129328440
 O   H  
  32  63
Cartesian
  2.9620835890000001  5.4920626915000001 -6.3598380732999997
  6.0137739584999998 -2.8054396102000001 -2.8383069522000000
  3.7257049003999998  3.3397195937999999 -0.4845211945000000
 -0.3630814612000000  1.9209772181000000  0.1266622884000000
  0.0440825847000000 -4.6406035333000002  6.9511374037999998
 11.7388673645000008 -2.6524979098000001  8.2620984212999993
  5.9267052905000002  2.6523622267000002 -1.7984740469000000
  6.0592313621000002  0.1850156880000000 -4.8065805412999998
  0.5477164241000000  4.3246348905999996 14.0498087797999993
 -5.8570773179000000  0.4829812261000000 -1.7329839144999999
  1.6885615713000000  5.9541673431000000  0.8629263876000000
  3.2184019104999999 -0.2057997490000000  5.5007158974000001
 -4.1824913297000004  4.5156411817000004 -3.8074141693999999
 -1.8133629180999999 -5.6719110298000004 -10.5789667329999997
 -4.2998515121000001  4.4005050149000002 -6.5671429893999997
 -6.3269660572999999 -0.9756540205000001  1.8668877191000000
 -7.4664003438000002  1.1955040417000000 10.1465615257999993
  6.7582703195000002 -7.6485693893000004  3.5208420249999999
  1.0745586803000000 11.1881238330000006  5.8257285976000004
 -12.1912249753000008 -0.5836445347000000  0.8025749438999999
 -9.6954394569000009 -9.9766642304000008 -2.2898148752999998
  0.9311287770000000 -0.4217722620000000 12.8051471722999999
  3.4452642360999999 -2.8166631336000001  5.9846392612999999
  4.2483108524000004 -4.0260119621000001  0.6566056060000000
  7.2192564766000000  0.1221999845000000 -1.8351766710999999
 -7.0954403942999997 -6.6222376503999998 -3.2521015977999999
 -3.9939305550999999 -1.2176828147000001  2.8482733420000002
  7.1518413580000004 -4.3402974675000001  1.5465704105000000
  8.5997126560999995  7.3762496333999996  6.1311430900000001
 -0.9291714512000000 -2.9426507160000002  3.3925707188000001
 -5.3897673810000004 -1.7675112350000000 -0.6395741849000000
  9.3520580952000003 -8.0275411232000007 -6.0799119479000003
  2.0984332941999999  5.1351750471999997 -6.4410697141000002
  2.9726483660000000  6.1684339475999996 -5.6472479672000002
  6.9545865606000001 -2.6372596148000000 -3.0945760730999998
  5.7421172457000003 -2.1792339661000000 -2.1815594671000000
  3.5186342071999999  2.7017192365999998  0.2313809780000000
  3.9366472599000000  4.1813984468000003 -0.1193875426000000
 -1.1638392714000001 -8.2475319777999996  0.4262634888000000
 -0.6337652315000000  2.8559169375000000 -0.0292493622000000
  0.1131536735000000 -5.1306165575999998  6.1038403736999998
  0.9153110701000000 -4.3148663036999997  7.1197694945999999
 11.1386244231999996 -1.9430762639000001  8.2021717872999993
 11.5848966339999997 -3.1270031624999999  9.1399181100000000
  5.0002700570999998  2.8139857964999999 -1.3608814124999999
  6.0421940732000001  1.6766758359000000 -1.6793566174000001
  5.1393051812000001 -0.0557212430000000 -4.5618833369000003
  0.1570669044000000  3.4841294891999999 13.7797524218999996
 -0.1741793300000000  4.9545531206000000 13.6804428174999995
 -6.1146179639999998  0.4122889613000000 -2.6925448776000001
 -6.6368868789000004  0.7703746576000000 -1.1901932774999999
  2.4806261543999999  5.6217888383999997  1.3273588297000001
  0.9826066704000000  5.9954328903000000  1.5004776108000000
  3.2752168124000001 -1.1870508571000000  5.5229674353000000
  2.3136203925999999  0.0320599978000000  5.3201233763999998
 -3.8289915871000000  5.3389214235000004 -3.4903212319999999
 -4.0211947131999999  3.8419123453999999 -3.1387987415000000
 -2.3854982124999999 -6.3330584408000004 -11.0316928828999998
 -1.2047380953000000 -5.4293477850000000 -1.4744268730000001
 -5.2182614172999999  4.6585508840000003 -6.5585247054000000
 -4.0764214118000002  4.4735986661000000 -5.5823963435000001
 -6.0876743077000004 -1.3187813037000000  0.9803828073999999
 -5.5744438675000003 -0.7987024061000000 -7.3770639744000004
 -7.2562361429999997  0.4652220967000000 10.7640303906000003
 -8.4188371072999999  1.3905123023999999 10.1790930784999993
  6.4197859281999996 -8.2018038826000002  4.2210451078000002
  6.0829100345000002 -6.9093803487000001  3.2652213015000000
  1.6601723892000000 11.9726808309999999  5.9709982500000001
  0.4100967149000000 11.3462614746000003 -4.6646033094000003
 -3.1933930762000000 -0.6229624292000000  1.4081809135000001
 -11.4534132797999995 -0.4098272083000000  1.3648546882000001
 -9.3128722074999999 -9.3149952033000005 -2.9198695459000001
 -9.9128437564999992 -9.3648966948000005 -1.5276544970999999
  0.4944180826000000 -1.2471650577000000 12.9480629289000007
  1.8535438192000000 -0.6506782339000000 12.6012341419999991
  2.8474558240999999 -2.8333383942000001  6.7570260198999996
  4.3009333478000000 -2.9947502716000001  6.4109672436000000
  5.0908789346000001 -4.0716082536000000  1.1045384801000000
  4.2824793386000000 -13.0310980039000004  0.0120744686000000
  8.1735592476000001  0.0433324803000000 -2.1406581296999998
  6.5354181387999999  0.2205302664000000 -3.9552389805999999
 -6.5057133332000001 -6.1270624373000002 -3.8732932728999998
 -6.8924231636000002  3.4639375925000002 -2.3804915152000001
  6.2265065426000001 -2.0646776099999999  3.1294436370000001
 -3.8770331674000000 -0.7982002910000000  3.7260287962000000
  7.3532452234000001 -4.8627597002999998  0.7186616429000000
  6.6793914602999997 -4.9266718515000001  2.1133833224999998
  8.9733124409999991  8.2051174281999995  6.4331192761000002
  9.1944877620999996 16.4348649448000010  6.3631565582000000
 -1.6669920085000001 -3.3478635630000002  2.9331889706999998
 -1.2859120899000001 -2.7549609252999998  4.2826252272999996
 -2.4963327981000001 -0.0467195330000000 -0.8542562562000000
 -5.6031018901999996 -0.8840436113000000 -10.9884345375999999
  8.3848061299999994 -8.0233242076000000  3.5694534986000002
  9.7455883066000002 -8.8707228846999993  3.4171530486999999
