O  H 
 1.0000000000000000
     9.8149143129328440    0.0000000000000000    0.0000000000000000
     0.0000000000000000    9.8149143129328440    0.0000000000000000
     0.0000000000000000    0.0000000000000000    9.8149143129328440
 O   H  
  32  63
Cartesian
  3.1611411076000002  5.0012641951000001 -5.8593375167000001
  6.0725390234000001 -3.1148168934000000 -3.0749755953000002
  3.6316813846999998  3.7260940435999998 -0.6799159348000000
 -0.8648323391000000  1.1940775514999999 -0.6691890883000000
 -0.0561023314000000 -4.7951817486000001  7.3157367722000002
 11.1612599215999992 -3.0428228114000002  8.6008431270999992
  5.8158477500999997  2.7666672167000002 -1.6052994916000001
  5.8868955821000002 -0.0655569325000000 -4.7093694666000001
  0.4984455344000000  4.3095888265999998 13.2255290869000000
 -5.8988694156000001  0.5008374866999999 -1.4711737751000000
  1.3117020427999999  6.4763290455000000  1.4551075811000000
  3.3386541524000002 -0.1579660847000000  6.0106104948999999
 -3.5759395270000001  4.1413737153000003 -4.0206162834999999
 -1.8792737410000000 -5.8798955525999999 -10.2354840173999992
 -4.1740853943999996  3.7621393850999998 -6.5551539998999999
 -6.8163640832999999 -0.8720642957000000  2.0189505245000001
 -7.9618110846999999  1.7229988009999999 10.1034902743000004
  6.7868452900999996 -8.5752345748999996  2.6213080898999999
  1.0474993361000000 11.1222383029999996  5.6166094185000004
 -12.2765255554999992 -0.5129599424000000  0.8316888155000000
 -9.4551468830999994 -10.4169020188000001 -2.4397322470999998
  0.8047098800000000 -0.5922787172000000 13.0354589837999999
  3.4482668260999998 -2.9462903327999999  6.4075278115999996
  4.8475560718999997 -4.1478985883000004  0.6696351616000000
  7.0434350084000004 -0.1122029826000000 -2.2110612000000001
 -7.3950427481999998 -6.1892050977000004 -3.3030102628000000
 -4.3178336421000001 -1.9930215272000000  2.8041531238999999
  7.3410070513000001 -4.4616972066000002  1.8833271622000001
  8.8207259784000005  7.1360174069999998  6.0715668656000004
 -0.7824086266000000 -2.8433790856000001  3.4584769600000000
 -4.9781909432999996 -1.8166753523000001 -0.9655900635000000
  9.1972776742000004 -8.0269118553999999 -6.6173900503000000
  2.2181150670999998  4.7614361403999999 -5.7636379003000000
  3.3679006038999999  5.7237445298000003 -5.3014182169000001
  7.0395115257000000 -3.0630588230000000 -3.1578662384000000
  5.7870531231999998 -2.4088461193000001 -2.4312681015000002
  3.0077938032999998  3.1621203913000002 -0.1449915161000000
  3.8910440593000000  4.5017440163000000 -0.1155429752000000
 -1.3963718508000000 -9.0020522404999994  0.1143909481000000
 -1.1921887617000000  2.2193610853000001 -0.6151143359000000
  0.3904414413000000 -5.3865252400000001  6.6740547086999999
  0.6136832472000000 -4.4107689185999996  7.8399667943000004
 10.6928542431999993 -2.3822641663000002  8.0559584269000002
 10.9541245144000001 -2.9068798148999999  9.5340007929000006
  4.9625277177999996  3.1228420249000002 -1.3340078996000000
  5.6808776749999996  1.8124686038000000 -1.5483884152000000
  4.9294525299999998 -0.1083535430000000 -4.6252219121999998
  0.0584872018000000  3.3972142514999999 13.4210297501000007
 -0.1495233543000000  4.9398382713000002 13.4316938635999996
 -6.2334470668000002  0.6024670165000000 -2.4091349779000000
 -6.5767060859999997  0.9858667236000000 -0.8694018829000000
  1.7448378019999999  5.5807477167000004  1.7034726940000000
  0.4476519099000000  6.5168863719000001  1.8850409659000000
  3.2534067806000002 -1.1249087766000001  6.2351731550000000
  2.7056281602999999  0.0914582561000000  5.3886563022000002
 -3.6864255378999999  4.9467594614000001 -3.5112645845000001
 -3.5431693803000002  3.4017717420000002 -3.3769859262000002
 -2.6881400491999998 -6.2339159140999998 -10.6539493379000003
 -1.4297174064000000 -5.3656089596000003 -1.0814185615000000
 -5.0546891707999997  4.1383125507000003 -6.6212827000000001
 -3.9699340164999999  3.9675893320000002 -5.6165798584999997
 -7.0593609011999998 -1.6029682053000001  1.4283617243000000
 -5.8874629046000004 -0.9792505164000000 -7.6053158353999999
 -7.6560218580999999  1.2557925510000001 10.8829376006000000
 -8.9410848533999996  1.7928846588000000 10.0914204613000003
  6.5912810404000002 -8.8728904159000006  3.5525370429000001
  6.4326074268999998 -7.7266673769000001  2.6015295690000002
  1.4170997599999999 12.0067369191999997  5.9445415240999999
  0.3416873206000000 11.2522742201000003 -4.8574270371999999
 -2.8203735272000001 -0.0832277831000000  1.5898723329000000
 -11.9075516118000007 -1.3703235549999999  1.1227425117000001
 -9.0248803943000002 -9.7243877868999995 -3.0257819681000000
 -9.8476125755999995 -9.8652911529999994 -1.7786696597000000
  0.0984408704000000 -1.2266299294000000 13.1936439929000002
  1.6340064734999999 -1.0148212909000001 12.7134164528000007
  2.7548669787000000 -3.2744164656999999  7.0907573195999998
  4.3496686514000000 -3.3688666920000001  6.5013693473999998
  5.7856114168000001 -4.0145897167999998  0.7411441161000000
  4.4005272316999999 -13.1643906017999992  0.4579206907000000
  7.6445479459000003  0.5864647175000000 -1.9830188656000001
  6.3099762157999999 -0.1601907283000000 -3.8447451931000001
 -7.0813651838000000 -5.6090935377999998 -3.9863961050999999
 -6.9935262065000003  3.7749720809000000 -2.4503086788999999
  5.3324820049000001 -2.9419970195000000  2.7658557618000001
 -4.1058011310999998 -1.7175467517000000  3.7005644167999998
  7.6257850594000001 -4.8310067422999996  1.0448888142999999
  6.9581357027999999 -5.2736089827999999  2.2875763336000001
  9.1824516803999998  8.0080698913999999  6.3326695145000000
  9.2064715685999996 16.1487423167000017  6.4885396195000000
 -1.5272413015999999 -3.0585237879000000  2.9369775518000001
 -0.9658266352000000 -2.8879986809000000  4.3866552653999999
 -2.7913587397000001 -0.6737468443000000 -1.4259520349999999
 -5.3691958854999999 -0.8753412073000000 -10.9694797861000009
  8.2767011235000005 -8.2595848586000002  3.0414422610999998
  9.7510124783999998 -8.7334855569999998  2.9642514447999999
