O  H 
 1.0000000000000000
     9.8149143129328440    0.0000000000000000    0.0000000000000000
     0.0000000000000000    9.8149143129328440    0.0000000000000000
     0.0000000000000000    0.0000000000000000    9.8149143129328440
 O   H  
  32  63
Cartesian
  3.1015560812000000  4.8570736074000003 -5.3387407334999999
  5.3913465935999998 -2.1143852755000001 -2.7248658137000001
  3.9603994240999998  3.3736407604999998 -1.0084965182000001
 -0.0811088730000000  1.8456392994999999  0.3239536217000000
 -0.0678653080000000 -4.6077887787999998  7.2812073519000000
 11.3513080755000004 -1.8771053878999999  8.1392425640999999
  6.3181238090000003  2.4699271669999998 -1.8296422967999999
  5.9358328657000001  0.9284162840000000 -4.0034693131000001
  0.5444123762999999  5.0495673124999998 12.7548366853000008
 -6.4009564727999999 -0.0236727414000000 -1.3692201030000000
  2.2877775207000002  6.3650820681000004  0.5554008032000000
  2.8051898148999999  0.3367196232000000  6.0629997792000001
 -3.9974601428000001  4.4005900305000001 -3.7534976472000001
 -1.5882807555000000 -5.8336510581000001 -10.5430950441999993
 -4.1440709170999996  4.8273919045999998 -6.3347383478000001
 -6.9342343648000000 -0.2112576577000000  2.5483609145999999
 -7.4037784218000002  1.5516840316000000 10.3196620498999998
  6.6118707262000003 -7.7325393750000000  3.1667037682000001
  0.3577441077000000 11.5939718168999999  6.0963951573999999
 -12.0439645588000008  0.3166973222000000  1.0263308594000000
 -10.5836780463999993 -10.4153052076999995 -2.8972786026000001
 -0.1087464472000000 -0.6362327343000000 11.8732818661999993
  3.1808729137000000 -2.6027078053000001  5.5427547953999996
  5.3455710871999997 -4.1162083453999996 -1.1006076064999999
  7.0213103852999996 -0.3075221936000000 -1.4520607771000000
 -7.7442949570000001 -6.1048056373000001 -2.8990061796000002
 -4.2042357332000000 -0.6865324327000000  3.6572266452000002
  7.0365030810000002 -4.2030337354000000  1.1840480709000001
  7.7160281826999997  7.3046846513999997  5.8438824317000000
 -1.5244666173999999 -2.8540217772999998  2.9740381790999999
 -5.2767453605999997 -1.3266120653000000  0.6688885624000001
  9.3758771290999992 -7.3862584690000004 -6.0093563163999999
  2.2884908624999998  4.8700764636000002 -5.9389383417000001
  3.0696606300000000  5.6944171975000000 -4.8638607321000000
  6.2398513338999999 -2.4782244690000002 -3.1184591638999999
  5.6234115101000004 -1.3529684899000001 -2.1770630329000000
  3.4854369062999999  3.1562838318000002 -0.1784776497000000
  4.3818239664999998  4.3072522758999998 -0.8685461106000000
 -0.8027654466000000 -8.5659492308999994  0.5379109058000000
 -0.4909385826000000  2.6371234243999999 -0.0032386249000000
  0.8068991997000000 -5.0631719981999996  7.1800524138000004
  0.0229018929000000 -3.7156123372000001  7.5121318162000001
 11.8024796230000000 -1.0462578738999999  8.2463980040999996
 11.7705625939999994 -2.3736292154999998  8.8819339936000006
  5.3948435113000004  2.5394529019999998 -1.4070080161000000
  6.6232449873999997  1.5322721230000000 -1.6660436256000000
  4.9844539618999999  0.8837080041000001 -4.0979616226999998
  0.0607705779000000  4.2312730035000001 12.7906590236000000
 -0.1612508312000000  5.6527233931999996 12.7299082013000007
 -6.2897545923999996  0.3767971758000000 -2.2535129650000001
 -6.6648533946999997  0.7198019275999999 -0.7069877148000000
  2.9268604442999999  6.6498253170000003  1.2621694566999999
  1.4312629786000000  6.0826515382000004  0.9525187227000000
  2.8035712335000000 -0.5555517243000000  5.7292237394000001
  1.9373629435999999  0.8270998942000000  6.0472092027000004
 -4.9087088832000001  4.6527431350999997 -3.5603799975000001
 -3.6397403025999999  3.8118638289000000 -3.0759639927000002
 -2.2960591108999999 -6.5551871857000004 -10.7829852175000003
 -1.1689264344000001 -5.4694272088000000 -1.4912568012000000
 -5.1387211143000000  4.7933373641000001 -6.2138827984000002
 -3.8519044194999998  4.7496197632000001 -5.4172939468000001
 -6.2246310701000001 -0.8090485776000000  2.2473308350000001
 -6.4517027443000003  0.0676323327000000 -6.4950281939999996
 -7.2001129819000003  1.0929040944999999 11.0842142416999998
 -8.3899097727999994  1.5723253830999999 10.2666088208000001
  6.4311833424999998 -8.4654051500000005  3.7353433908000002
  5.8483363734999996 -7.1342766044000001  3.0778270798000000
  0.8991106315000000 12.1542884369999999  6.6805543368000002
  0.0477077944000000 12.0005631014999992 -4.5195872965000001
 -2.5106785073000002  1.0956398920999999  1.5528168750000000
 -11.3378660330999992 -0.2397423896000000  1.4098165880000000
 -10.3042997223999997 -9.5324914061000001 -3.1392170641999999
 -9.7567698283999995 -10.9023242676999992 -2.5735002433999998
 -0.4236962413000000 -1.5520372205999999 12.2141780712999992
  0.8172606702000000 -0.6080009326000000 12.0696886344000003
  2.4329044666000001 -2.4556622192000002  6.1832879213999998
  3.9891617549000000 -2.4041396478000001  6.0633788763999998
  5.8720798923000004 -3.9630697850000001 -0.2820097596000000
  5.3568130983000000 -13.0945012264000002 -1.5979188789000001
  7.7582615691000001 -0.4860292596000000 -2.0187151091000000
  6.0878660787000003  1.4016239397000001 -3.1344834202000000
 -7.1327371300999998 -6.0016270650000001 -3.6836823738000000
 -7.1743449615000001  3.5299561396999999 -2.1012864995000000
  5.6703984137000001 -1.5083414312000001  3.1875221382999999
 -3.9636702220000002 -0.7964848197000000  4.6234799451999997
  7.4526373095000000 -4.8499343977000002  0.5908787275000000
  6.4490627151000002 -4.5637126380000002  1.8734760825000001
  8.1353948928000008  8.0892338105999997  6.2642090743000001
  8.2452539554000008 16.3690193589000010  6.0965611746999997
 -2.0959524986000000 -3.0642304134999998  2.1637666296000000
 -1.9449828597000001 -2.3833053888000002  3.6776493651000002
 -2.4855517676000001 -0.1870694515000000 -0.4827211130000000
 -5.7642410815999998 -0.9136354007000000 -9.8976734645000004
  8.4265864744000005 -7.4197905674999998  3.5815737144000002
  9.7431517651000004 -8.0942788391999994  3.3107505434000002
