O  H 
 1.0000000000000000
     9.8149143129328440    0.0000000000000000    0.0000000000000000
     0.0000000000000000    9.8149143129328440    0.0000000000000000
     0.0000000000000000    0.0000000000000000    9.8149143129328440
 O   H  
  32  63
Cartesian
  3.0973316231000001  5.3690747328999997 -6.2888708874999999
  6.2050633587000004 -3.2103072089000002 -2.5895147132999998
  3.0799125725000001  3.2646256534000000 -0.3957095203000000
 -0.4079486021000000  1.4861750927999999 -0.2304646644000000
 -0.3602134664000000 -4.1715576065000004  5.9920753297999996
 11.2379357735000003 -2.7179163716999999  7.4410577472000003
  6.4024132664000000  2.2684385874999999 -1.6686156488999999
  6.3333709412000001  0.3739509311000000 -4.7278236332999999
  0.5976939110000000  4.8437437057999997 13.0245189568999997
 -5.7862078119999998  0.2086224386000000 -1.2096057795999999
  1.6049335902999999  6.8470723803000002  0.1915520971000000
  3.7511339208000001 -0.0985524353000000  5.7321042500999999
 -4.5378101313999997  4.1551409370999997 -3.4085628067000000
 -1.5689284857000001 -5.5774366539000004 -10.4069751329999995
 -3.9760257715999998  4.4963888426000000 -5.9573663049999999
 -6.4424822976999998 -0.7800153723000000  2.1295488637000002
 -7.6559420204000004  0.9156808000000000 10.1580519939999991
  7.0494880698999998 -7.8080484278000002  2.8796072551999998
  1.7739508138000000 11.3149773809000003  5.2366808679999997
 -12.6078867558999992  0.1590132423000000  0.7982399650000001
 -9.1476813386000000 -9.6483391902999998 -2.6766281244000001
  1.0045714852000001 -0.2321963853000000 13.1526840344000000
  3.4065518922000000 -2.7516097608000001  5.8396439793999999
  3.9549925792999998 -3.7119723816999999  1.1060243314000000
  7.9336116661000000 -0.1919509824000000 -2.4446709915999998
 -7.1648906425999996 -6.2141753868000000 -3.1824548406000002
 -4.2710927022999998 -1.3795036537000001  3.4169823188000001
  6.8413165005999996 -3.9711774874999999  1.5886251442999999
  8.0568991018999991  7.7029047464999998  5.4770689652000000
 -0.6349105446000000 -2.5001346497000001  2.8436219058000001
 -4.4969697965000002 -1.8444900484000000 -0.3643788392000000
  9.6882477329000007 -7.6528577770000004 -6.5123507363000002
  2.2013667740999998  4.9787628329000002 -6.2808521654999998
  3.1346213476000000  6.0485782899000000 -5.5707039165000003
  6.6836521867999998 -2.7827670015999999 -3.3335809824000000
  5.8921843587999998 -2.5456440243000000 -1.8893756062000000
  3.1491142293999999  2.6164370513000001  0.3135044948000000
  3.1049375629000000  4.0975420917000003  0.0788466234000000
 -1.2590156634000000 -8.5569435227999993  0.2073874483000000
 -0.1940250483000000  2.4442052097000002 -0.2079891166000000
 -0.1186467548000000 -4.8202212941000004  5.3113177031000003
  0.3824356214000000 -3.7887315675000002  6.4851375850000004
 10.9777169333000000 -1.7980865605000000  7.4824515956999997
 11.1763411871000002 -2.9238244705000001  8.3866091187999992
  5.7976888897999999  1.6680732134000000 -1.2272510785999999
  6.9370482988999997  1.5916504667000000 -2.1369053299999998
  5.4038279680999999  0.1324570692000000 -4.3985203270000000
  0.2611666921000000  4.0451069123999996 12.6049097966999994
  0.1866981357000000  5.7054586661000002 12.8052879148999992
 -5.9922697597000001  0.2625565972000000 -2.1527583682000002
 -6.6468471361999999  0.4136027179000000 -0.7742788825000000
  2.4811886609000000  6.5583121836000000  0.5554964182000000
  0.8867923100000000  6.7784375520999998  0.8679394497000000
  3.3244701322000001 -1.0201429635000001  5.7148450615000002
  3.0666446345999998  0.3931479589000000  5.1865097634000001
 -4.2760785886999999  4.9394352387999998 -3.0001818104000000
 -3.9904810748999999  3.4792216978999999 -2.9687502497999998
 -2.1000969434000001 -6.2651349416000004 -10.8769291506000005
 -1.6332639690999999 -4.8132618513000001 -1.1414661523000000
 -4.9271196645000002  4.5029856443999998 -6.1245339799999998
 -3.8014584323000000  4.6202899222999996 -4.9813953758000000
 -6.8429638832000004 -1.3512549697000000  1.4440506798999999
 -5.6613359112000001 -1.2192272101999999 -7.1988481979000003
 -7.3580960254000001  0.5580438057000000 10.9888666630999996
 -8.6565254031999999  0.9238277686000000 10.2192301060999995
  6.6882207212999996 -8.1610718878000004  3.6779275837999998
  6.7119119132999998 -6.8905099991999998  2.9335741225000000
  2.1147480933999998 12.1223359423999995  5.7357173668000003
  1.2517685588000000 11.5498135350000002 -5.3265415885999996
 -2.9537299412000002  0.6463402375000000  1.6639635156999999
 -12.7672367790999992 -0.7851803882000000  0.9512936546000000
 -8.9652427638999992 -9.2708267991000000 -3.5473267520000000
 -8.9881788424000000 -8.9696435147999996 -2.0635261833000000
  0.4022011816000000 -0.7982205754000000 12.6651365610000006
  1.9068849529000000 -0.4783414809000000 12.8218994356000007
  2.6455146372999998 -2.9200024409999998  6.4770547457000003
  4.1982731660999999 -2.7902229009999999  6.3865914735000002
  3.7284208452000001 -3.8496531622000001  2.0246540432000000
  4.8636658622000004 -13.2892329702000005  0.9962176613000000
  8.9280041799000003 -0.1509126878000000 -2.3505609156000000
  6.9718271634000004  0.1768152248000000 -4.0419483284000002
 -6.2750406706000001 -5.8562273880999998 -3.3845167528000002
 -7.0298672077999997  3.2809052670000001 -2.2846501808999999
  5.8091668417999998 -2.2587877059000001  3.7382287544000001
 -3.8380630004000000 -0.7441477684000000  4.0757216951000004
  6.8822280749000004 -4.5797869851000002  0.8287670031000000
  6.5149417441999997 -4.4422209667999999  2.4188173859000002
  8.4963224428000004  8.4025849911999995  5.9560153170000003
  8.6454493434999993 16.7152115742000014  5.6236002301000001
 -1.4347914983000001 -2.8815951018999999  2.3871801146000000
 -0.8579549036000000 -2.2599598396000000  3.8253609121999999
 -2.1220809555000000 -0.3807676654000000 -1.5166537503999999
 -5.0256149917000004 -1.0367684012000000 -10.3589579471000004
  8.6895298943999997 -7.7180187663000002  3.2579069772999998
  9.9814233224999995 -8.4467604894000008  2.9129903156000001
