 O  H 
 1.0000000000000000
     9.8149143129328440    0.0000000000000000    0.0000000000000000
     0.0000000000000000    9.8149143129328440    0.0000000000000000
     0.0000000000000000    0.0000000000000000    9.8149143129328440
 O   H  
  32  63
Cartesian
     3.3477857552        5.2108188707       -6.0640468672    O    
     5.9377003168       -2.9095813509       -3.2926319277    O    
     3.4520286584        3.5386135774       -0.7858287023    O    
    -0.8221402999        1.2794399631       -0.4130310936    O    
     0.1727629836       -4.8936123966        7.5732872993    O    
    11.4360502334       -2.8055412047        8.2927415942    O    
     5.9870578426        2.6119253171       -1.8018994867    O    
     6.0839328123        0.0897401019       -4.9133504990    O    
     0.7406869747        4.1269524960       13.0629658391    O    
    -5.7908477112        0.5659978237       -1.2822176403    O    
     1.5417382065        6.6833580497        1.5601632244    O    
     3.5759823064       -0.1508392303        5.7708535765    O    
    -3.4954402794        4.0285924804       -4.1458320093    O    
    -1.6543248124       -6.0065584050      -10.3640260222    O    
    -4.0718265128        3.8349196064       -6.8215417058    O    
    -6.9028137909       -0.7457483700        1.7311510767    O    
    -7.9381972005        1.4747767890        9.8870213521    O    
     6.6314622879       -8.4857790090        2.6982688679    O    
     1.1536280478       11.1678662190        5.6829395803    O    
   -12.5372220869       -0.2820383313        0.7688321970    O    
    -9.6460976436      -10.5566901226       -2.5944613377    O    
     0.6283243633       -0.4802330238       13.2288566843    O    
     3.2831711159       -2.7643109269        6.1256978994    O    
     4.8448198242       -4.4041819692        0.3923917512    O    
     7.2337968394        0.0993967070       -2.2411681453    O    
    -7.5431616768       -5.9013304818       -3.2876891878    O    
    -4.5718357055       -1.7170524499        2.9583989537    O    
     7.3832021374       -4.2711980586        1.6113660912    O    
     8.6749593051        6.9162354332        5.8806864740    O    
    -0.5716956488       -2.8839739092        3.2233663461    O    
    -4.8954769581       -1.6802217228       -0.7146461450    O    
     9.2618000636       -8.1179349812       -6.3788198880    O    
     2.4149173582        4.9626693714       -6.2633729350    H    
     3.3112818845        6.0500478163       -5.6020872798    H    
     6.8873190379       -2.8239516392       -3.5651672227    H    
     5.7733281658       -2.7045628094       -2.3233431664    H    
     2.7987476896        3.1706895869       -0.1688802580    H    
     3.9055843588        4.2137321850       -0.2232528790    H    
    -1.3642706598       -8.9758862050        0.2534893817    H    
    -1.1101345925        2.2366798919       -0.3711293554    H    
     0.8417071315       -5.3084815361        6.9806517685    H    
     0.7119580622       -4.2408314843        8.1208947406    H    
    10.7934155271       -2.0858281620        7.9416283160    H    
    11.5086263711       -2.5463097504        9.2095227462    H    
     5.0364850260        2.7967167243       -1.5163114519    H    
     6.0175302754        1.6035754504       -1.8359922588    H    
     5.3542254091        0.3708141787       -4.3332486468    H    
     0.3621534489        3.2250354647       13.0650979243    H    
     0.2505015940        4.5104435704       13.7340207735    H    
    -5.8446066565        0.4927265253       -2.2018088103    H    
    -6.5874246780        0.9515035729       -0.9577296899    H    
     1.7611968694        5.7912865658        1.2633581390    H    
     0.9889621395        6.6646985116        2.3457775177    H    
     3.3475808906       -1.0720508293        5.6924839911    H    
     2.8544212441        0.3038642467        5.3085462576    H    
    -3.6432023886        4.8660878719       -3.6962822252    H    
    -3.3247004311        3.4348425154       -3.4320769650    H    
    -2.5732367664       -6.2700054023      -10.5745080751    H    
    -1.1613909782       -5.6052264530       -1.3346246270    H    
    -4.8471161820        4.2613520887       -7.1159472705    H    
    -4.0616705920        3.9945442507       -5.9174210352    H    
    -7.2559908181       -1.6909961023        1.5414694120    H    
    -5.9806781504       -0.8409654397       -7.7569721090    H    
    -7.6296490576        0.9401975704       10.5920361755    H    
    -8.8822471137        1.3707695513        9.7263839833    H    
     6.4235055225       -8.8388631421        3.5437857103    H    
     6.1912932432       -7.5616155104        2.6786393492    H    
     1.5250055690       11.9983896263        5.9471315985    H    
     0.3958805652       11.3264158757       -4.6797601694    H    
    -3.2205572816        0.3577663754        1.3030543335    H    
   -12.6578201365       -1.1512510898        1.1945969743    H    
    -9.2136388294       -9.8372598237       -3.0612529691    H    
   -10.2845405556      -10.1186648481       -2.0195567494    H    
     0.2839210105       -1.3115093671       13.0224851417    H    
     1.5589605078       -0.3969046968       13.0168861112    H    
     2.7561097361       -2.9357877726        6.9098085513    H    
     4.1889332951       -2.9154725199        6.3034972122    H    
     5.6453574942       -4.2903196657        0.9189703864    H    
     4.4421690033      -13.3472455035        0.2074942859    H    
     7.7757101810        0.4527510989       -1.5051621892    H    
     6.7923614508        0.0478977902       -4.2711328657    H    
    -6.9416364221       -5.8256082779       -4.0016180745    H    
    -7.0370434739        3.8337574096       -2.4008690782    H    
     4.7253828167       -2.4488855524        3.2853000616    H    
    -4.1050641690       -1.3205524520        3.6942207475    H    
     7.7258110719       -4.9174253071        0.9325568281    H    
     7.1638584914       -4.9035643286        2.3343356171    H    
     8.9026946058        7.7861656439        6.1607638533    H    
     9.1408789056       16.0138173848        6.2558357585    H    
    -1.2348714256       -3.3986535781        2.7330744221    H    
    -0.7717826004       -2.9964722354        4.1675394565    H    
    -2.8706332536       -0.7427626309       -1.8588937951    H    
    -5.3541132242       -0.8286243670      -10.7593055637    H    
     8.3688763933       -8.1596740506        2.9926277390    H    
     9.8442843235       -8.8111046019        3.0771152541    H    
