O  H 
 1.0000000000000000
     9.8149143129328440    0.0000000000000000    0.0000000000000000
     0.0000000000000000    9.8149143129328440    0.0000000000000000
     0.0000000000000000    0.0000000000000000    9.8149143129328440
 O   H  
  32  63
Cartesian
  3.1091009408999999  5.5951816681000004 -6.2837460106999998
  6.1032438743000004 -2.8532518202000001 -3.1501818656000000
  3.7856778934999999  3.3553081610000000 -0.6216450475000000
 -0.6585979862000000  1.3694309669000000 -0.0875409507000000
 -0.5180799303000000 -4.1377915923000002  6.7550848220999997
 11.2022030909999994 -2.2500555400000000  7.7654322992999996
  6.0827500366000002  2.9032949652000002 -1.6294640592000000
  6.1253109166000002  0.2671892618000000 -4.7978626702999998
  0.7242519495000000  4.6719789641000000 13.8667485574999994
 -5.5392864766000001  0.2250505768000000 -1.4128886668000000
  1.6775424104000001  6.7742563138999996  0.6372239711000000
  3.8358577281000001  0.2439521542000000  5.7136391128000001
 -3.7149931235999998  4.3006445292000004 -3.9000889234999998
 -1.6264728548000000 -5.5391042189000004 -10.2870048656000002
 -4.2630874096999998  4.1504964965999998 -6.3982358336000003
 -6.6043737424000000 -0.5317578434000000  1.9867708635000001
 -7.8179791087000003  1.4182090620000001  9.9823447656000006
  7.0453136577000004 -7.9197586918000002  3.1236201876999998
  1.6354181589000001 11.5493570519999995  5.4728663443999999
 -12.3333340355000001 -0.0917677116000000  1.1267371312000001
 -9.6751661156999997 -9.5707212739000003 -2.6989585297000001
  0.6835122850000001 -0.3273517695000000 12.2072549268999992
  3.7088825910000001 -2.6366103457999999  5.7539127397999996
  4.1860994071000004 -4.1060487792000000  0.8392204430000000
  7.1230101122000002  0.2135160131000000 -2.1841867491000002
 -6.8872949514000004 -5.6609389211999996 -3.1561892525999999
 -4.3600828507999996 -1.4124719470000000  3.0984511933999999
  6.9677516370000001 -3.9168792774000001  1.8124844168000001
  8.2931091773999999  7.7682452418999999  5.5107417165000001
 -0.7444841730000000 -2.9981981090000001  2.9254011395999999
 -4.4891513793000000 -2.0538583957999998 -0.6389951061000000
  9.9105827340000001 -7.7664097426999996 -6.4589194828999998
  2.2261862901999998  5.2812103073000003 -6.0438110794000002
  3.4294624963000002  6.1227868746000000 -5.5452607755000001
  6.8413771030000001 -2.4310197972999998 -3.6785984109999998
  6.2082856959999999 -2.6193777776000000 -2.2126770697999998
  3.1622130462000002  2.8459478035000001 -0.0783581162000000
  3.9048289839999999  4.0761634819000001  0.0068325551000000
 -1.3288500703999999 -9.0231964088000005  0.3747941686000000
 -1.0327411337000001  2.2313208092000001 -0.0602230819000000
  0.0279417770000000 -4.6474899120000002  6.1148357786999998
  0.1265963223000000 -3.7277304719000002  7.4249052093000003
 10.6697557880999998 -1.4382515109000000  7.6268272905999996
 11.3382008447999993 -2.2701474589999999  8.6935054321000003
  5.1799687931999996  3.0543557449000001 -1.2561239922000000
  6.1654196001999999  1.9557977835000000 -1.8466923462000000
  5.2243941596000001  0.5349526476000001 -4.5855315071999998
  0.5208012052000000  3.8029679979000002 13.5435730105999994
  0.2666510531000000  5.4306538834999998 13.3750094116000007
 -5.6311480525000004  0.2892648040000000 -2.4131084340000002
 -6.3123336246999999  0.7067454632000000 -1.0608076344999999
  2.3729859137000000  6.1519888600000003  0.8777029394000000
  1.0368563394000001  6.8711174360999996  1.3258758799000001
  3.6340663499999999 -0.7166917072000000  5.7866743939000003
  3.0135552604000000  0.6506595368000000  5.4528553886999998
 -3.8294447572000001  5.2169962109999997 -3.6541117944999999
 -3.2850958136999999  3.8465524236999999 -3.1619252808999998
 -2.3734189514000001 -6.0968665554000001 -10.7274997882999994
 -1.2222351513000000 -5.1231389130000000 -1.2077169528000000
 -5.1428582957000000  4.4355384880999997 -6.2049733890000001
 -3.9342518435999998  4.0804469340000002 -5.4328015027000003
 -6.8882720106999997 -1.2079025920999999  1.3957961855000001
 -5.7527858000999998 -0.9026530569000000 -7.3835496685999997
 -7.5577092276000002  0.9162551045000000 10.8410065309999997
 -8.7464322207999992  1.4693676353000000 10.0587419174000008
  6.8545467425000002 -8.4334969242000000  3.9347406279000001
  6.4768864881999999 -7.1676843744000003  3.2687692694999999
  2.1545117953999999 12.3331168452999993  5.6838283427000000
  1.1143860909000001 11.6947868993000004 -5.1971328190000001
 -2.8095091655000002  0.5908822470000000  1.7563243465000000
 -12.4950696043999994 -0.8909782550999999  1.6803617540000000
 -9.0205752601999993 -9.0033594100999998 -3.1511264331000000
 -9.7431408846000007 -9.1046339539000005 -1.7958012891999999
  0.0415297795000000 -1.1073624526000001 12.1352499656999999
  1.6131577547000000 -0.6154210881000000 12.3688551336000003
  3.0074632215000001 -2.6557650301000000  6.3979099180999999
  4.6079177156000002 -2.6880172068000001  6.1305250509000002
  4.3886447162000000 -4.1793819522000000  1.7440996079000000
  4.7645282765000001 -13.2725930556999998  0.4597667520000000
  7.9386892028000000  0.6570739561000000 -2.3234322671999998
  6.5074572355999996  0.1262357280000000 -3.9198983709999999
 -5.9799276211999999 -5.5078160799000004 -3.3985642045000000
 -6.9927512311999998  3.8682008202999998 -2.2464535789000002
  5.4302198956999996 -2.3672733791999998  3.1584420674000002
 -4.1344177888999996 -1.0708078770000000  4.0245608274000002
  7.1760882118999998 -4.3134913420999998  0.9295190397000000
  6.4821017730000001 -4.6485960303000002  2.3350561240999999
  8.6930247567999999  8.6037073415999998  5.8195358965999997
  8.8109202526000008 16.8346741890000011  5.9879454876000002
 -1.5159687463000000 -3.4843781027000000  2.5776122270999999
 -1.1491179175999999 -2.5873686739999999  3.7104803172000000
 -2.8429372203000001  0.0908232618000000 -1.2669824868999999
 -5.0787051000999996 -1.3041576849000001 -10.6809057036000006
  8.9430785321999995 -7.6479611539999999  3.4313287790000002
 10.1304840385000006 -8.5569252122999995  2.8333068135000001
