O  H 
 1.0000000000000000
     9.8149143129328440    0.0000000000000000    0.0000000000000000
     0.0000000000000000    9.8149143129328440    0.0000000000000000
     0.0000000000000000    0.0000000000000000    9.8149143129328440
 O   H  
  32  63
Cartesian
  3.1118677319999999  4.9685865432999998 -5.4541634388000002
  5.9958209142000003 -2.9278986281999999 -2.9710999181000002
  3.8731871313999999  3.0876153294000002 -0.3475253223000000
 -0.4428886983000000  1.6298317710000001 -0.0466950374000000
 -0.0049817315000000 -4.8452695611000003  7.5035977865000003
 11.2413491442000009 -2.6317282685999999  8.5231962479999996
  5.9455156777999996  2.5734234479999998 -1.8878108290000000
  5.7285527649999999  0.3063212277000000 -4.6092382103000000
  0.8653545625000000  4.9358562358000002 12.6499812780000003
 -6.6980410713999996 -0.1962825218000000 -1.2327516344000000
  2.4930732564000002  5.9483413216000001  0.9905065847000000
  3.1184306946999998 -0.1808386721000000  5.8644192553999996
 -3.6060846771000001  3.9341306102000000 -4.1063230222999998
 -1.7701535857999999 -5.9735658397000000 -10.4255805588000001
 -4.2137198103999998  4.7496792809999997 -6.4889160232999998
 -7.3479987069000003 -1.1423615890000001  1.7072716459999999
 -7.8342533574999997  1.4722400798999999 10.5210931717000005
  7.0750736823000002 -8.0798701376000004  3.1469377985000002
  1.1211881664000001 11.5475230132999993  5.8124361001000002
 -12.7926862077999992  0.5125099485000000  0.6122101831000000
 -9.9118038036999998 -9.6980855800000008 -2.2105760448999998
  0.4717659916000000 -0.4731594091000000 13.6028026365999999
  3.1329334587000002 -2.9885308135000002  6.0908766182000003
  4.8944339929999998 -4.4453519385000000  0.1985097636000000
  7.0333038754999997 -0.4659703421000000 -2.0604327715999999
 -7.0964017438000004 -6.3002198690000002 -2.9380742048999999
 -4.8815198194000002 -1.4901625354000001  2.8534788739999999
  7.1842023490000004 -4.1311399599999996  1.5532392768000001
  8.6970714082999994  6.9244642141000003  5.9581738024000002
 -0.7716826948000000 -2.7511509722000000  3.3421081215999999
 -4.9364685687999996 -1.5295761395000000  0.0317349383000000
  9.7834233277999996 -7.6350447183999997 -6.6251192020999996
  2.2990355635999999  4.7985267082999998 -5.9338518962000002
  3.1015951590999999  5.8967662566000003 -5.1027728116000004
  6.5606947100999999 -2.8824860659999998 -3.7703994983000002
  6.3448952944999997 -2.3145020444000002 -2.3199564329000002
  3.1667428792000001  2.6427669437999999  0.2015190564000000
  4.1835982252999999  4.0020776491000003 -0.0215011537000000
 -1.0314747517000000 -8.7512260860000008  0.4689232446000000
 -0.8318835892999999  2.5158917932999998 -0.1532612116000000
  0.7625433892000000 -5.2228726051000001  7.1292459590000004
  0.4020795006000000 -4.0382004032000003  7.7931170695000000
 11.1234239328999998 -1.7097717169000000  8.7170465927999992
 11.4903177252000006 -3.0898935674999999  9.3386290007999992
  5.1407894397999998  2.8023359290999998 -1.5300772489000001
  6.1675785366999998  1.6965955371000001 -1.5032866975000001
  4.7859627632999997  0.3187594008000000 -4.3818017866999996
  0.4869027212000000  4.0177105573000000 12.5195878075000007
  0.0696265096000000  5.4901352465000004 12.7721287804999992
 -6.7387748711000004 -0.1342364195000000 -2.2375478178999999
 -7.0199811147000002  0.6626176771000000 -0.8184610180000000
  3.4406145645000001  5.7615693415999996  1.0701001978000000
  1.9998245471000000  5.7546297934000004  1.8008731831000000
  3.0777182975000001 -1.1753481837999999  5.8670676783999998
  2.3438685654000002  0.1820035098000000  5.4488636433000002
 -3.5012852120000000  4.7812935127999996 -3.5578612538000001
 -3.5273248424000001  3.2365161586000002 -3.4671252339000000
 -2.4723464745000001 -6.5886971623999999 -10.7822026727000004
 -1.2347782787999999 -5.7560418690999997 -1.4222481180000000
 -5.1741580910999998  4.8098267169000000 -6.5240519144000002
 -3.9171417705999998  4.3568891420000000 -5.6188401204999998
 -7.6809889092999999 -2.0214597758999999  1.4749235003000001
 -6.5669858201000002 -1.3076877246000000 -7.5211878073999996
 -7.6273169094000002  0.7255466461000000 11.1407813538999996
 -8.8097317997999998  1.6430143796000001 10.6089790544000007
  6.8037781974999998 -8.6855048002000004  3.8292284624000001
  6.7747722078999999 -7.2122332123000001  3.3421034641000000
  1.3172575461000000 12.4396823942000001  6.1259049228000002
  0.6750664794000000 11.7253543281999999 -4.8161042454000000
 -2.8988980768000001  0.9757561641000000  1.4461970719999999
 -13.4371841400999994 -0.2098573025000000  0.7092265638000000
 -9.5184209202000005 -9.2171139331000003 -2.9127211605999999
 -9.7680966511000005 -9.1935000574999997 -1.4055365473999999
 -0.1202795856000000 -1.2353050443000000 13.4671717385999994
  1.2214615135000000 -0.7265310970000000 13.0246622238000000
  2.6314942716999998 -2.8972466468999998  6.9373634001999998
  4.0425058930000004 -3.0977090172000001  6.3121339070999998
  5.7478275451999998 -4.4040810400000003  0.6931215295000001
  4.7312655689999996 -13.6532544142999992 -0.5234839787000000
  8.0190390661999995 -0.3516230467000000 -2.1611329023999999
  6.2014373900999997 -0.0290703965000000 -3.8356315135000001
 -6.7106659381000000 -5.7363541301999996 -3.6181016268000001
 -6.7285756624999999  3.6997055106999999 -2.0831740244999999
  5.2351968133000000 -1.1614626647999999  1.9851024523000000
 -4.6850917051999996 -0.8354373344000000  3.5422218882999998
  7.6990395214999996 -4.5302004687000004  0.7881057352000000
  6.6851992356999999 -4.7916112082000000  2.1153113554999998
  8.9670210973000000  7.6235339449000001  6.5908842693000000
  8.9850796402000004 15.9248930076999997  6.3668708065999997
 -1.4122181481000000 -2.9812507163999999  2.6931849216999999
 -1.1970402348000000 -2.9873730634000002  4.1578689500000001
 -2.9781691500999998 -0.0136466581000000 -1.2795141897000000
 -5.6685739396999999 -1.0236670966000001 -10.3038564299999997
  8.8195161336000005 -7.7452147406999998  3.4453776729999999
 10.0452239209999998 -8.5738718850000009  3.0980370675000000
