 O  H 
 1.0000000000000000
     9.8149143129328440    0.0000000000000000    0.0000000000000000
     0.0000000000000000    9.8149143129328440    0.0000000000000000
     0.0000000000000000    0.0000000000000000    9.8149143129328440
 O   H  
  32  63
Cartesian
      3.1741229442        4.7226102346       -5.5338639640   O   
      6.2995689169       -2.2619574736       -3.7182678616   O   
      3.4970411444        3.5631093607       -1.0428439220   O   
     -0.3862787929        1.1402096568       -0.0785546109   O   
      0.1643936774       -4.7594974087        7.7430394171   O   
     11.4079680503       -2.6439326736        8.1226016907   O   
      6.4042116964        2.5468859992       -1.5487449219   O   
      5.7040902108        0.3170365693       -4.9297600799   O   
      1.3331451260        3.9025641707       12.4857741613   O   
     -5.8495822875        0.6592268637       -1.4318726370   O   
      2.3907571006        6.5222003845        1.1809905437   O   
      3.1866680321        0.1187489304        5.7806074186   O   
     -3.2432888984        4.5716604241       -3.4036478917   O   
     -1.4737007638       -6.2971057051      -10.1330027180   O   
     -4.2375860577        3.8561000556       -5.8972257457   O   
     -6.7891833488       -0.6436873968        1.8621546848   O   
     -7.6043226487        1.6880915073       10.3231549856   O   
      6.5606211937       -8.1518803725        2.7828186627   O   
      0.9676827367       11.2052952605        5.4486538579   O   
    -12.3201720563       -0.3725399845        0.7485724315   O   
     -9.7068711066      -10.2657497662       -2.3878703882   O   
      0.6389826572       -0.9040280608       13.3266036257   O   
      3.6636730378       -2.6818074742        5.9054886436   O   
      4.8438872646       -4.1833934640        0.5236513245   O   
      6.9768370635       -0.0539058595       -1.9980159901   O   
     -7.6569637378       -6.2926471413       -3.3589927238   O   
     -4.1331917394       -1.7908556091        2.5054158243   O   
      7.1838266414       -4.8908827217        1.7313738373   O   
      8.9720721514        6.8810481685        5.8522367008   O   
     -0.4610219624       -3.8083999245        3.0139230884   O   
     -5.4076365326       -1.8137161862       -1.2626769541   O   
      9.4560291470       -8.1963408830       -6.9990121733   O   
      2.4518934957        4.4564715196       -6.1976235627   H   
      3.2028731439        5.6704311840       -5.3631417963   H   
      7.1256749213       -2.7563103743       -3.7465551212   H   
      6.4237340246       -1.4735293245       -3.1918955639   H   
      2.8753567712        3.0412085593       -0.4758621498   H   
      4.0645388307        4.1951166519       -0.5572814092   H   
     -0.7157578981       -9.0950726986        0.7240035117   H   
     -0.7978010242        2.0588586387       -0.1428014529   H   
      0.7468887595       -5.3402394703        7.2917503969   H   
      0.6614499440       -3.9899954549        8.1302835780   H   
     10.9706168690       -1.7783678001        7.8631557904   H   
     12.0441438867       -2.4112292137        8.8394754223   H   
      5.4409689733        2.4258783679       -1.3039734184   H   
      6.6681313817        1.7844455249       -2.1121972202   H   
      4.7436224214        0.3740521125       -4.7083223425   H   
      0.9662043199        3.0579382603       12.2903813628   H   
      0.5419364953        4.4950199127       12.6282640361   H   
     -6.2189204848        0.7797633507       -2.2986932647   H   
     -6.4879902746        1.0410338215       -0.7621242496   H   
      3.2300124528        5.9927121966        1.0937845078   H   
      1.8768638450        5.7998769751        1.5333366974   H   
      3.1063934455       -0.8568174221        5.7917552151   H   
      2.2919439916        0.4960447794        5.6792915820   H   
     -3.5861089648        5.3885026634       -3.0495353037   H   
     -3.1646230383        3.9772073931       -2.6126908857   H   
     -2.2722516061       -6.5096879166      -10.6197237331   H   
     -0.8514427217       -5.8122673438       -0.9034565598   H   
     -5.2296110615        4.0340727800       -5.9298427398   H   
     -3.9446224109        4.0567886224       -5.0026822138   H   
     -6.8190437651       -1.6040919649        1.8561856151   H   
     -5.8544954236       -0.5122631718       -7.9312695357   H   
     -7.4452930003        0.8556232190       10.8869716035   H   
     -8.5939889908        1.6262331681       10.1310725262   H   
      6.2067940387       -8.7941360802        3.3882024412   H   
      6.3550135544       -7.3249830777        3.2767244143   H   
      1.4094703566       12.1075292851        5.6917705932   H   
      0.4045802308       11.2868007776       -5.1645282966   H   
     -2.8877118444        0.5135793494        0.9963346414   H   
    -12.7134103109       -0.8846738363        1.4839093993   H   
     -9.3159863363       -9.6167476564       -3.0141514616   H   
     -9.6116217187       -9.7111343404       -1.5960267162   H   
      0.3152564726       -1.6395775533       12.8256481518   H   
      1.6307967723       -0.8033997194       13.2053811795   H   
      3.2286250796       -2.7852322087        6.7762805394   H   
      4.6313640103       -2.6745703551        6.1092557974   H   
      5.7118487100       -4.3551061100        1.0236416540   H   
      5.0018868665      -13.1873266744        0.0145203666   H   
      8.0155522594       -0.2096070341       -2.1566548416   H   
      6.2449777266        0.1018470854       -4.1712098794   H   
     -7.1637841322       -5.7812062966       -4.0610312575   H   
     -7.1346840122        3.6979251880       -2.5363663528   H   
      5.7011388967       -2.7029200572        2.8375393865   H   
     -4.1699452594       -1.3079487825        3.3695879275   H   
      7.5244533658       -5.5095700004        0.9962153791   H   
      6.7357206288       -5.4033441124        2.3947304750   H   
      9.4730990494        7.6260536576        6.1101797427   H   
      9.1062369770       15.9675401792        6.4612720956   H   
     -1.1873305441       -4.1205732589        2.3991880880   H   
     -0.8675071500       -3.9007871057        3.8549020304   H   
     -2.8513543717       -0.2349573405       -1.0184479303   H   
     -5.5001618474       -0.8369549728      -11.0654991875   H   
      8.4593459999       -8.1142798802        2.9764698845   H   
      9.4993551005       -9.1175033657        2.9352698949   H   
