O  H 
 1.0000000000000000
     9.8149143129328440    0.0000000000000000    0.0000000000000000
     0.0000000000000000    9.8149143129328440    0.0000000000000000
     0.0000000000000000    0.0000000000000000    9.8149143129328440
 O   H  
  32  63
Cartesian
  3.0392314114999999  4.8666510380999997 -5.9154101770000000
  6.5672153833999998 -2.4584502496999998 -4.0313407513000001
  3.7276249628000002  3.3529138406999999 -1.0191277111999999
 -0.4729649146000000  0.8310532351000000 -0.3585963744000000
  0.0394518997000000 -5.0373487726999997  7.5652399398999997
 11.5118458647999997 -2.8820242259000000  8.2890472284999994
  6.1943854519999997  2.7224988021000001 -1.7733171068000000
  5.5032829973000004  0.1243578683000000 -5.1388437385000003
  1.0895020467000001  3.6741593098999998 12.0956104780999993
 -5.9927206730000000  0.4767129472000000 -1.6738212164999999
  2.1945770346000000  6.3729103027000003  0.9197833333000000
  2.9769821527000002 -0.1767559316000000  5.4769194726999997
 -3.0519520324000000  4.8120059625999998 -3.7117354847000001
 -1.4573052354000000 -6.3344263236999998 -9.9991625047999992
 -4.0744644615999999  4.1908556994000001 -5.9944727266999998
 -7.0504865792000002 -0.9267053984000000  1.8539176986999999
 -7.5730079619000001  1.3809178784000000 10.1381573620999994
  6.7367075903000000 -7.9581521873999996  2.7410459538000000
  0.8141394654000000 11.1608247382000005  5.1909304283999997
 -12.6012380931999992 -0.0777608060000000  0.4923687848000000
 -9.3473836796000001 -10.2486288437000006 -2.6316637660000000
  0.3522261177000000 -0.9329962898000000 13.1116193390000007
  3.4237081251000001 -2.8770522370000000  5.6721200089000003
  4.6365734582000000 -4.2996509739000004  0.5071704804000000
  6.8024929656999999 -0.2170933646000000 -2.3087095754000000
 -7.5288089723000002 -6.2412268301999996 -3.5370333141999999
 -4.4458682654999997 -1.5299651375000001  2.7313719872000002
  7.4117457902000004 -4.7642952628000002  1.8989873521000000
  9.2396791789999995  6.6719574634000001  5.5075122606000004
 -0.1515397668000000 -3.6262808647000000  2.9806134913000002
 -5.2852127223999998 -2.0622621462000001 -1.0446003568000000
  9.2789757623000000 -8.2205373808999997 -6.7985191360000004
  2.3721048354000001  4.5593668806999998 -6.5829032767999998
  3.0227733937000001  5.8525768190000003 -5.7848204643000001
  7.4641674075999997 -2.4050659502000000 -4.3857379108999996
  6.4893259878000000 -1.6898804208000000 -3.4301902586000002
  3.2718917999000001  2.6142079486999998 -0.6604929253000000
  3.9208761111000001  4.0150381955999999 -0.3142188956000000
 -1.1611641388000000 -9.5493230628999992 -0.0106295690000000
 -0.9061120953000000  1.7223420683999999 -0.3009722767000000
  0.6428475543000000 -5.7158808183999996  7.1899025334999997
  0.5392712739000000 -4.3103358486000003  7.8278145995999999
 11.4519280494999993 -1.9295459978000000  8.1546893390000008
 11.6004576287999992 -3.0165359187999998  9.2797603675999998
  5.1906949150999999  2.8570583919999999 -1.5666243822999999
  6.2935273062999997  1.7300037585000001 -1.8525638952000001
  4.6297335343999997  0.1326091810000000 -4.7885085599000003
  0.5719816243000000  2.9179261578000002 12.3584758525999998
  0.4088780320000000  4.3828584029000002 12.1587682709999996
 -6.2031529721999998  0.2634117424000000 -2.5696068711000000
 -6.7621064805000000  0.7329045958000000 -1.2254213835000001
  2.8887464733999999  5.7426413323999999  1.0972732953000000
  1.4877068617000000  5.9876473490000004  1.4918467845000001
  2.8468342178000001 -1.2203758385000001  5.4823661459000004
  2.1496198243000002  0.2318368798000000  5.0855379638000002
 -2.8782836353999999  5.7170233035000004 -3.4504439028000000
 -2.8530980132999999  4.2056206755999996 -2.9287214785000000
 -2.2194584622000000 -6.4307776577000002 -10.5695062748000002
 -0.7263931720000000 -6.0040598884999996 -0.8007481480000000
 -5.0236445975999997  4.3948977605000001 -5.9355885844999996
 -3.6684077922000000  4.5273161546000003 -5.1191045854999997
 -7.2278953769000003 -1.7552938415999999  1.3306975038000000
 -6.1842822737000001 -1.1309069137000001 -7.6407288191999996
 -7.2254300943000001  0.7184811741000000 10.7487645820999997
 -8.4978989675999994  1.2608481267000000 10.1625318675000003
  6.5527246839000002 -8.6114227323999994  3.4658208024000001
  6.1970938301000000 -7.2111510192999999  3.0225690460000001
  1.2442191806000000 11.9532650680000003  5.3480036508000000
  0.1252439692000000 11.2970208275000008 -5.2807594562000002
 -3.1416162969000001  0.7807940515000000  0.8782218561000000
 -13.0173215184999993 -0.7267971204000000  1.0155080353999999
 -9.3677906581000006 -9.7137310420999992 -3.4579806383000000
 -9.4694052123999999 -9.5783378831999997 -1.9109614667999999
  0.1232469934000000 -1.7889514553000001 12.7293088377999997
  1.2507917073000001 -0.6674594119000000 12.8923573522999995
  2.9392928282000002 -3.0746879025000000  6.4884975848000002
  4.4046500188000000 -2.9035866362000000  5.8691298867999997
  5.4715930335999996 -4.4961024960999998  0.9246755899000000
  4.7922773860000003 -13.3052921816000005  0.0036307405000000
  7.7721235314000001 -0.3696056248000000 -2.3096346106999999
  6.1610133758999996  0.1338193932000000 -4.4442250944000001
 -7.1864266281000004 -5.7228036056000002 -4.2948295985999998
 -6.8875681231000003  3.8420074576999999 -2.8499280270999998
  5.4845978001000004 -2.4246619321999998  3.0279056534000000
 -4.2382605436000000 -1.0112605061000000  3.5415735148000000
  7.5193865039999999 -5.4783460213000001  1.2797486970000000
  6.6615184845000002 -4.9362788719999999  2.4520835099000000
  9.5246547141000004  7.5498310819999999  5.8791596496000000
  9.3502412435999993 15.6959980435999995  6.0839186479000000
 -1.0636273188000001 -3.8966805816000001  2.7164820086999999
 -0.1734841249000000 -3.3362178974000001  3.9069075820000001
 -3.2726878974000000 -0.3505653080000000 -1.4210453286000000
 -5.6277399658000000 -1.1744704631000000 -11.1486096882000005
  8.3551352685999998 -7.9467578741000002  2.8063515615000001
  9.2842276798000007 -9.1991213581999993  2.8933661248000000
