O  H 
 1.0000000000000000
     9.8149143129328440    0.0000000000000000    0.0000000000000000
     0.0000000000000000    9.8149143129328440    0.0000000000000000
     0.0000000000000000    0.0000000000000000    9.8149143129328440
 O   H  
  32  63
Cartesian
  3.2172463444999999  4.9223738473000003 -5.5348462306000004
  5.5315135376000004 -2.3524172466000000 -2.8580693507000001
  3.8529325855000001  3.1756625006000001 -0.5596374119000000
 -0.5264380096000000  1.3844922149000001 -0.2858110378000000
 -0.0562217263000000 -4.5718544240999996  7.5883537864999999
 11.0435413463999996 -2.5354973656999999  8.6366085460999997
  6.3728114284000004  2.4177222881999998 -1.5865793927000000
  5.8168049839000000  0.4688855423000000 -4.3528753457000002
  0.5628700161000000  4.5348087374999997 12.7431076897000004
 -6.9712729036000001 -0.3325089105000000 -1.6124193601000001
  1.9405322001000000  6.3134568997000002  1.3754448238999999
  3.1926508331000001 -0.4180974220000000  5.4545739669000000
 -4.2756534237999997  4.5053091816000004 -3.5695425935000000
 -1.6849310596000000 -5.6946441103999996 -10.2304464081000006
 -4.0580427167000002  4.6157116167999996 -6.1873152340999997
 -6.5870814712000003 -1.1710967014000000  1.7160865935000000
 -7.8455451902000002  1.1856993954999999 10.2487780536000006
  6.9531582083999997 -7.9408337115999998  3.2173774656999998
  1.0516816894000001 11.0608066670999996  5.8993358475999997
 -12.2888493374000003 -0.0311048935000000  1.2597307415000001
 -10.3833939865999998 -10.5207789104000007 -2.7949620208999999
  0.7559999586000000 -0.7531115782000000 12.8721260461000000
  3.2176361561000002 -2.9999943026000002  6.1668733170000003
  4.4102536713999996 -4.0067723997000000  0.0976256358000000
  6.7326874544999997 -0.2044571070000000 -1.9273055832999999
 -7.5018407611000004 -5.9835989870999997 -2.9721956454999998
 -4.6529181125000001 -1.7136583166999999  3.6104136622000000
  6.7179657985999999 -4.2620231029999998  1.5255261416000001
  8.2154139364999992  6.8935379332000002  5.9136959891999998
 -1.0666588422000001 -3.0712421796000000  3.2891871580999998
 -5.1008556880000002 -1.2354672256000001 -0.0549737750000000
  9.8134616985999994 -7.9870017579999999 -6.3726358063999999
  2.4156803286000001  4.8596786154000000 -6.0746067038999998
  3.1618233725999998  5.6570626144000000 -4.9101052540000003
  6.2599934475000003 -2.5151676029000001 -3.4177521793999999
  5.9428658532999998 -1.6879947877000001 -2.2994805738999999
  3.1440935640999998  2.6100919272000001 -0.2024458694000000
  3.9308664014999999  4.1049829095000003 -0.3829299856000000
 -1.1077580218000000 -8.9151560269000001  0.3132281559000000
 -0.9706051721000000  2.2028989214000001 -0.3672813709000000
  0.6286193245000000 -5.1866047452000004  7.2608662325999997
  0.4832421586000000 -3.8178444719000000  7.9176398893000002
 11.7125780643000006 -1.8136962717000000  8.4939182875999997
 11.0988529436000007 -2.8055096076999999  9.5505095373000000
  5.4112882077000002  2.4789477241000002 -1.2660106125999999
  6.6643252314000003  1.4981297244000000 -1.5757294177000001
  4.8679726555000000  0.3970211005000000 -4.5858683435999996
  0.2814537652000000  3.6262354742000000 12.7173235099999999
 -0.0475936576000000  5.1210982565999998 13.1369628980000002
 -6.9089583584999996 -0.1198275151000000 -2.6240953294999998
 -7.3893882993000002  0.4049670498000000 -1.0711273708000000
  2.6799865778999998  5.8327722871000001  1.0128061031000000
  1.3225495029000001  5.7721588605000003  1.9382718278000000
  3.0462738797000002 -1.3886210233000000  5.4791744290000004
  2.2906476009999999 -0.0682517946000000  5.3866461551000002
 -4.1854869949999998  5.2959971577999996 -2.8785120156000001
 -3.9228320154000000  3.6970290659999998 -3.1060775736999999
 -2.4090241447000000 -6.1701540689999996 -10.6080261987999993
 -1.2277013012000000 -5.1713730090999999 -1.1011183794999999
 -4.9650926893999996  4.5241661780999998 -6.3123486126000001
 -3.9756167219999998  4.6120316252000002 -5.2349510806000001
 -6.9371468109999999 -2.0914512379999999  1.5998747963000000
 -5.7628377772999997 -1.3384481179000001 -7.5702506437999997
 -7.5531711679000004  0.6671214139000000 10.9447680965000007
 -8.8285267186999992  1.3769919018000001 10.2952001478999993
  6.3755339129999999 -8.3258350485000001  3.9106445420000000
  6.5991557220999999 -7.0763074342000003  3.0408280928000000
  1.3951605336999999 11.8016738563000008  6.4870026272999999
  0.6064254310000000 11.5364041305999994 -4.6912539843000003
 -2.7433638903999999  0.6368934302000000  1.9219309719000000
 -12.6182708418999994 -0.8925215453999999  1.3931486446000001
 -9.9104549791000007 -9.6851050618999999 -3.1041893595999999
 -9.8743523224000000 -10.8493882984999992 -2.0671340036000001
  0.2152392687000000 -1.4900551671000000 12.8504667811999997
  1.7031267403000001 -0.9594632999000000 12.8956653566000004
  2.7962872428000001 -3.1918917121999999  6.9995773251999998
  4.1428811552000004 -2.7084396149000001  6.3185949769000000
  5.2655080303000004 -4.0741907336000001  0.6514887932000000
  4.4931602877000003 -12.9180598461000002 -0.2901118915000000
  7.6168189123000003 -0.3532673427000000 -2.2377955107999998
  6.0063459146999998  0.2203000648000000 -3.4107043386000000
 -7.1847936696000003 -5.7275391903999999 -3.8440755343999999
 -6.7555057210999996  4.0673139061999999 -2.3935832359000000
  5.8093799342999999 -2.3151081744000002  3.2024232542000002
 -4.2109809119000001 -1.1831306782000000  4.2710863255999998
  7.2202577280000000 -4.9961280124999998  1.0642029194000000
  6.2845340171000004 -4.7042438680999998  2.2872440021000000
  8.6601393082999998  7.7557797315999997  6.2365398958000000
  8.7496664131999999 16.1027712212999994  6.3883715088999997
 -1.8328165288000000 -3.3651629040000000  2.7803067054000001
 -1.3226622992999999 -3.0854294828000000  4.2188016708999996
 -3.1321687856999998 -0.4344819505000000 -0.9437545651000000
 -5.7603866926000000 -0.6731701283000000 -10.2998655942999999
  8.8369262078999995 -7.9459458070000002  3.4177206982000001
 10.0252044964000007 -8.9817103892999999  3.4228812411999998
