O  H 
 1.0000000000000000
     9.8149143129328440    0.0000000000000000    0.0000000000000000
     0.0000000000000000    9.8149143129328440    0.0000000000000000
     0.0000000000000000    0.0000000000000000    9.8149143129328440
 O   H  
  32  63
Cartesian
  3.0055045081000000  5.0632205396999996 -5.4175738673999998
  5.7097948305999999 -2.6559619463000002 -2.7438603690000001
  3.6490784839999999  3.4868423119999998 -1.0149871165000000
 -0.4646661956000000  1.6563502931000000 -0.0930147312000000
 -0.4298256640000000 -4.2919161254000002  6.9620863027000004
 11.3302414296999991 -2.7725866716000001  8.2649984868999997
  6.0655331726000004  2.7129683070000001 -1.4528939492999999
  5.6855601824999997  0.5444566873000000 -4.3974865545000004
  0.6406873245000000  4.4556484833000001 12.9103112061999994
 -7.2138998767000002 -0.3283389333000000 -1.1964367488000001
  2.1982855981000000  5.8777763768000000  1.0626154500000000
  3.1120256416999998  0.3737333506000000  5.9872504691000001
 -3.7781882063999999  4.5493361266000001 -3.3819324324000002
 -1.5973182818000000 -5.7183624143999996 -10.5111500364000001
 -4.0672064071999996  4.7192999339000004 -5.9056355115999999
 -6.7834782744000002 -1.0348121866000000  1.8942513726000001
 -7.8979749219000004  1.5704347686000000 10.3434753598999993
  6.8642754000000004 -7.7028153667000003  3.6177771625999999
  0.8459720475000000 11.5054779496999995  6.0834669901999998
 -12.7184367241000000  0.3859960690000000  1.2936281313000000
 -10.2765574748000006 -10.1450401281999998 -2.6529203004999999
  0.5483938295000000 -0.4591277863000000 12.7589596912999994
  2.9583954727999999 -2.4544224075000001  6.0489081010000003
  4.6223761530000003 -4.1464406269999996 -0.1261186929000000
  6.8790825064999996 -0.3791907914000000 -1.6127031739000000
 -7.9040955656999996 -5.8823639602000002 -2.8407665262999999
 -4.9371635908000000 -1.5697800027000000  3.8738339995000000
  7.0415561548000003 -4.4552960218999997  1.3064281824999999
  7.8116158477999997  7.3891044863999999  5.5326500201000002
 -0.8246964069000000 -2.9368326745000002  3.1199925374999999
 -5.0187170750999996 -1.5941499356000000 -0.2788514310000000
  9.5458803740999993 -7.8014029016000004 -6.0080489055999999
  2.0896457632000001  4.9313337025999999 -5.8481130672999999
  2.9914233833999999  6.0095392739999998 -5.2347183754000000
  6.5574995927000002 -2.5201023851000000 -3.3189040943000001
  5.8758662956999999 -1.9449236845000000 -2.0724928663000002
  3.1995381690000002  2.8828431230999998 -0.3731835326000000
  4.0035727283000000  4.2864266425000004 -0.5187177078000000
 -1.0825353092000001 -8.6395312662000006  0.4769682300000000
 -0.7386886415000000  2.5818865685999999 -0.2941366421000000
 -0.0601440366000000 -5.0686470915999999  6.5001091608000001
  0.3336309237000000 -3.6935010812000000  7.2336318785999998
 11.6504326109999994 -1.8420924111000001  8.5684878139999991
 11.1186357914999991 -3.2498461298999999  9.0901275241999997
  5.1119619791000002  2.9454777704000001 -1.4526123331000000
  6.3268286601000003  1.7808657414000000 -1.3837540692999999
  4.7333595109999997  0.4309097646000000 -4.2253688272999996
  0.0820827422000000  3.6588980111999998 13.0731442928000003
  0.1056583631000000  5.2663344466000002 13.0380274558000000
 -6.8466431223999997  0.0848560239000000 -1.9938360853999999
 -7.3250522674000003  0.3706390655000000 -0.4700722270000000
  3.1270823623999999  5.6389426838999999  0.8456073570000000
  1.7137205780000000  5.0629844338999996  1.3138692701000001
  3.1656904616000001 -0.5369640152000000  5.7974034983999996
  2.1914902275000001  0.7117965422000000  5.7488317501999999
 -3.9685163621999999  5.3982618694999998 -2.9472671700999999
 -3.7390552559999999  3.8690746333999999 -2.7217920822999999
 -2.5262035036000001 -5.9533837313999998 -10.7688542322000007
 -1.3479008637000001 -5.0409603444000002 -1.3862954144999999
 -5.0521810346000002  4.6977188918000001 -6.0498736271000002
 -3.9637874692000001  4.5681812562999999 -4.9409394815000001
 -7.2190715474999996 -1.8357311376000001  1.4835209603999999
 -6.1321456807999999 -1.3013228433999999 -7.2241818535000002
 -7.8637346626999998  1.1125542675000000 11.2115233649999997
 -8.8873426385999998  1.6145969878999999 10.1858726276000002
  6.3839914621000000 -8.3427614048999992  4.1590741275000003
  6.3670975555000000 -6.8778343576000003  3.7161313063999999
  1.2006294441000001 12.3873085532000005  6.3596561896999999
  0.3646514941000000 11.6423085364999999 -4.5523319531000004
 -3.1382208697000000  1.0383166639999999  1.9967534693000000
 -13.2795733945999999 -0.3772794025000000  1.5622482226000001
 -9.9437194538000000 -9.2307037644999994 -2.8484506640000000
 -9.4261073810999996 -10.5717412468000003 -2.5218906836000001
 -0.0012827577000000 -1.3208173858000001 12.8889379836000000
  1.3751912670999999 -0.7508572313000000 12.3549114311999997
  2.5206737314000001 -2.7800872570999999  6.8745673784000001
  3.9459681315999999 -2.5196211635000001  6.2127436183000002
  5.4205280544000001 -4.1457179485999998  0.4536873917000000
  4.6209612893000003 -13.2040159458000002 -0.7206560531000000
  7.7982707831000004 -0.3814844038000000 -1.9549209678999999
  6.0966312153000004  0.2221483215000000 -3.6078654749000001
 -7.4142309243000000 -5.5927244540999999 -3.6095210833000002
 -7.2443938893000004  3.7413317425999999 -2.1384364948000001
  5.3282318869000003 -2.4484604094000000  4.0184322132999997
 -4.3841170861999998 -0.9389909644000000  4.2859607126999997
  7.5955277004999999 -4.8517017273000000  0.6626990738000000
  6.8532238641000003 -5.1338547645999997  1.9758818991000000
  8.3191819005000003  8.2034333364999998  5.7882437306999996
  8.2448557974999996 16.4125051675999991  5.9307972322999998
 -1.5511021813000001 -3.0478587222000000  2.4605134186000002
 -1.2239426851999999 -2.8837633760000001  3.9837970683999999
 -2.9719906941000001 -0.0990656595000000 -0.7112715162000000
 -5.8408914509000001 -1.1820623642000001 -10.4224142095999994
  8.6204492968000004 -7.7221360220999999  3.7034488768000000
  9.8999063139000008 -8.5359364186000004  3.2916778145999999
