O  H 
 1.0000000000000000
     9.8149143129328440    0.0000000000000000    0.0000000000000000
     0.0000000000000000    9.8149143129328440    0.0000000000000000
     0.0000000000000000    0.0000000000000000    9.8149143129328440
 O   H  
  32  63
Cartesian
  3.1830246622999998  4.5663603501000001 -5.8868222790000004
  5.9699239757999996 -3.2055448950000001 -3.5695561596999998
  3.2935998238000002  3.6874285544999998 -1.3480331276999999
 -0.6096230241000000  0.9255784034000000 -0.8901266428000000
  0.0369860874000000 -4.8835657844000000  7.2965656231000002
 11.3181202437999993 -2.9929330866999999  8.3686327558000002
  5.9022510999000000  2.7369064895999999 -1.4821070864000001
  6.0043460058999996  0.0796006883000000 -4.9731845095000002
  0.9051627401000000  4.2270578295999996 12.3358249041000008
 -5.6177806522999996  0.4731559678000000 -2.0935576009000001
  2.1336335707999998  6.9276294490000003  1.2964798409000000
  3.2795914545999998  0.0646916928000000  5.3227826931999997
 -3.5501213234000000  4.0574230654000001 -4.1065679817999996
 -1.5659626151999999 -6.3124331106999998 -10.1811166245999996
 -3.9189872909000001  4.3390747773999996 -6.7283984015999998
 -6.7546750818000003 -0.6204212976000000  1.9799466359000000
 -7.3067003743000001  1.1809330934000000  9.6889920320999998
  6.8535360037000004 -8.3826200083000000  2.6049625407999999
  1.0997614782000000 11.3258466641000002  5.6416712153999997
 -13.1035833470000007 -0.5646595272000000  0.6699922253000000
 -9.2270662340000005 -10.7067394559999993 -3.2314791598000001
  0.8661830592000000 -0.5783043802000000 13.4264639137999993
  3.4873732661000001 -3.0033845495999998  5.4879152047000002
  4.3291514781000000 -4.0856176446000001  0.3723817004000000
  6.9342734840000002 -0.0683190331000000 -2.5065604878999999
 -7.4830517930999996 -6.0434936107999997 -3.6215723903999999
 -4.4225771048000002 -1.6981277293999999  2.9365399528000000
  7.0179667851999996 -3.9538378672999999  1.2372768832000001
  8.6504721284000006  6.5912188401999998  5.6051851528999999
 -0.3648430831000000 -3.0589424237000000  2.9753287464999998
 -4.8530782315999996 -1.9036311785000000 -1.3293885977000000
  9.4560367803999998 -7.9193542675000002 -6.6195647784000000
  2.3893484272999999  4.4628033331000001 -6.4654133009999999
  3.0375646591000001  5.4545703007000004 -5.3966676887000000
  6.8505820993000004 -3.2716763535000002 -3.9746653106999998
  6.0416962509000003 -2.6800995973999999 -2.7395534442999998
  3.0549108755000001  3.0068682944999998 -0.7412907776000000
  3.5225233482000000  4.4808831485000002 -0.8864076090000000
 -1.2188263798000001 -9.4416306671000001 -0.4212014044000000
 -0.6997083526000000  1.7913520753000001 -0.5479311093000000
  0.5755213221000000 -5.6115599567999999  6.9608702842000003
  0.6837987919000000 -4.3015790262999998  7.7971327079000003
 11.2165326370000002 -2.2111141459999999  7.8235736600000001
 11.4584661610000005 -2.7799079873000001  9.3301818585999996
  5.0368398158999996  2.9602001598999998 -1.1455169880000000
  5.7923684941999998  1.9240851440000000 -1.9994800145000000
  5.1027540015000001  0.3051522891000000 -4.9759778880000001
  0.4403189020000000  3.4355464135000000 12.5553691206000000
  0.3790637558000000  4.9972190012000004 12.7296319547000003
 -6.2259392360000003  0.3312736446000000 -2.8870455724999999
 -6.2065894718000001  0.9271904238999999 -1.4311581945000000
  2.8289493491000002  6.2184925410999998  1.0911696473000001
  1.5143304223000000  6.4981264850000002  1.8039273741999999
  3.0318748186000000 -0.8985117459999999  5.0769052942000004
  2.5986309285000000  0.6587303812999999  5.0242771404999997
 -3.5920441945000001  4.8349380464999996 -3.5553298576999999
 -3.7360795373000002  3.3211603072000000 -3.5150821944000001
 -2.4206740802000000 -6.5996331880000003 -10.5370846036000003
 -0.9843531279000000 -5.9629459544000003 -1.1038147809000001
 -4.8486389457000003  4.2830619056000003 -6.8610685236000002
 -3.8437698056000000  4.1036232164999999 -5.8061384280999997
 -7.0023968660999998 -1.5150626037999999  1.6883626311000000
 -5.9540357179000001 -0.8262932934000000 -7.2948923299999997
 -6.9491134508999997  0.9055432334000000 10.5182865272000008
 -8.2118542214999994  0.8427952680000000  9.6351145417000001
  6.8122335259000000 -8.7260941574000004  3.5130627915999999
  6.4590821550999999 -7.5104882519000000  2.6275103206999999
  1.4600914720000000 12.1099131918000005  6.0624246348000002
  0.5166389848000000 11.7609976015999997 -4.8522168613999996
 -3.1066957978000000  0.2980968697000000  1.1048496994999999
 -13.2499873904999994 -1.1664311167000001  1.4788302820999999
 -9.1531832115000000 -10.4996849141999995 -4.1625172978000000
 -9.3139674975000002 -9.8466640174000002 -2.8189742626999998
  0.3001923957000000 -1.3758720701000000 13.2337537644999994
  1.6448119824000000 -0.5841912720000000 12.9027686506000006
  3.0577164313999998 -3.1542574475000000  6.3369757532000000
  4.4791343664000003 -3.0427675563999999  5.5345682782000001
  5.2854438462999997 -4.1541824399999996  0.6555437304000000
  4.3358331566999997 -13.1027796702000003 -0.1717531666000000
  7.8635904297000003  0.3508807378000000 -2.3865527709999999
  6.2373866378000002 -0.2135099603000000 -4.0601572555000001
 -7.0713370892000000 -5.8456906866000002 -4.4875855899000001
 -6.8122810742000004  3.8085647121999999 -2.9614939265000002
  5.1912236943999996 -2.4507160308999998  3.4415070200000000
 -3.9990496402000000 -1.1602765750999999  3.5966077932000000
  7.4567188757000000 -4.4427510983999996  0.5634366632000000
  6.7088695050000000 -4.5305543467999998  1.9876901982999999
  9.0476611169000005  7.3078195445000000  6.1264117731000001
  9.0925778072999996 15.6983729310999998  6.1694133906999999
 -1.0904250637999999 -3.0934322420000000  2.3585216673999998
 -0.7102457343000000 -3.1889737569999999  3.8833396336999999
 -3.2500975181000000 -0.2345585988000000 -1.6405051798000001
 -5.1806219653000003 -0.9827511833000000 -11.3206541294999994
  8.4926088384000007 -8.0922459773999993  3.0267460235999999
  9.8533802073000007 -8.8162921023000003  3.2638985405000001
