O  H 
 1.0000000000000000
     9.8149143129328440    0.0000000000000000    0.0000000000000000
     0.0000000000000000    9.8149143129328440    0.0000000000000000
     0.0000000000000000    0.0000000000000000    9.8149143129328440
 O   H  
  32  63
Cartesian
  2.9529416268999999  4.9906979829999996 -5.2780636040999998
  6.1610000846000004 -2.6526062471000000 -2.7121310577000002
  3.4927318815000001  3.5488274215000000 -0.7052456317000000
 -0.6471108902000000  1.1360969175000000  0.1280702147000000
  0.0259587121000000 -4.5791597397999997  7.5706010083999997
 11.4976953216000002 -2.5110325735000001  8.3960055286999999
  5.9788793710999997  2.6163749205000002 -1.5741265091000001
  5.9652995245999998  0.0381378579000000 -4.8442992882000002
  1.0993913739000001  4.5164391167000000 12.7455929785999995
 -6.0703710405000004  0.2545833381000000 -1.7495794134000000
  2.3527183902000002  6.0246205007000002  0.9032486329000000
  3.2052877703000000 -0.2086301123000000  5.4423998167000001
 -4.3218888187999998  4.6441620146000000 -3.1547587631999998
 -1.5335174405000001 -6.0937355823999999 -10.2213328169000004
 -4.0483580575999998  4.6564448589999996 -5.7918309162000003
 -7.1022392171000002 -1.3823531575000001  2.0562319174999999
 -7.4533922171000002  1.1968849573000000 10.2392597542000008
  6.6715239086000002 -7.6000708482999997  3.0591511245000000
  0.9713365732000000 11.3909932096999995  6.1878750167999996
 -13.1571555725000007  0.5680002602999999  0.9275173182000001
 -9.8807371061999998 -10.3591759265000007 -2.0267886083000000
  0.7045100392000000 -0.1032013329000000 12.9888436045999995
  3.4424249656999999 -2.8019260436000000  6.3571549887999996
  5.1757817229000000 -4.1561675172000001  0.4194247234000000
  6.8687299048000003 -0.1210773939000000 -2.0216740288000001
 -7.4158127470000004 -6.0797656772000002 -3.0482517774000000
 -4.1407023080999998 -1.4160309301000000  2.5635587014999999
  7.4619139076999996 -4.6745259678000002  1.9790583341000001
  8.8255567269000004  7.1161315011999999  6.1217822833000000
 -0.4965423833000000 -3.1072102009000000  3.3451023099000001
 -4.8916996556000001 -1.4526076858999999 -0.2117949887000000
  9.5300834332999997 -7.4487939959000000 -6.4388386976999996
  2.1388253832999999  5.1069351126999996 -5.8567755898999998
  3.2389865850000001  5.8346534331999997 -4.8259608437999999
  7.0934843340000002 -2.7190757150999998 -3.1149635030999998
  6.1085456536000002 -2.0352085525999999 -1.9968882811999999
  3.0042022298000002  2.9061031408000000 -0.1627630368000000
  4.1151014012999996  4.0574561923000001 -0.1996719871000000
 -1.2995173838000000 -9.0208696045999996  0.7160458534000000
 -0.8344755696000000  2.0602346950000001 -0.0698591869000000
  0.6541393863000000 -5.2252380718999998  7.3516686335000001
  0.5401006380000000 -3.8430995549999998  7.9019506028000004
 10.8948462622999998 -1.7679406279000001  8.2621466595000008
 11.6692801218000000 -2.8711645307000002  9.2499087591000002
  5.1305377073000002  2.2653312408000001 -1.3226928326000000
  6.4283080452999997  1.8234163715000000 -1.9399253857000001
  5.0081361122999999  0.0522084634000000 -4.5594643343000003
  0.3858133254000000  3.8209633606000000 13.0266594383999994
  0.6406675978000000  5.3144260524000000 12.4625353757999999
 -6.2442736935000003  0.3118912155000000 -2.7103736599000001
 -6.7713924549000000  0.7535802840000000 -1.3867163646000000
  3.3085629747000000  5.8262356824000001  0.9430550453000000
  1.9775931530999999  5.2276018024999997  1.2102090898000000
  2.8752549972999999 -1.1007130237000000  5.6206306853000001
  2.3980334762000002  0.3631260352000000  5.3847135175999998
 -4.1313312110000000  5.4036538753999999 -2.6650120327000000
 -4.0802104928000000  3.8743414428000000 -2.6574242160999999
 -2.4543948034000000 -6.2772685345000001 -10.5807217357999992
 -1.1564786751000000 -5.6018017056999998 -1.1370314533999999
 -4.9568764454999998  5.0100183108999996 -6.0102922587999998
 -4.0611649204000004  4.6766006758999996 -4.8145508745000001
 -7.2959451066999996 -2.2468293245000002  1.6492516800000001
 -6.2348104774999999 -1.4779747939000001 -7.4849916947999997
 -7.3123855769999997  0.4606923935000000 10.7564989744999995
 -8.4516439117999997  1.2648636204000001 10.2213826847000000
  6.6309992899000001 -8.3641075954000002  3.6799369737999998
  6.2334755882000001 -6.9131827310000000  3.6064151338000001
  1.4286401672000000 12.1982307822999996  6.4671256530000001
  0.4663069345000000 11.5232387963999994 -4.4209171405000003
 -3.5160343144000001  1.3439573806000000  1.3604900474999999
 -13.5138345740000005 -0.2164028296000000  1.3892787390000001
 -9.4375338791000001 -9.7096258006999996 -2.5887518222999999
 -10.1166608963000009 -9.8423505604999999 -1.2204453631000001
 -0.0037064013000000 -0.7373232513000000 13.1137622443000001
  1.4934246280000001 -0.6501040455000000 12.6344808059999991
  2.9515574463999998 -2.7873951534999999  7.2085756738000004
  4.4415588421000001 -2.6691584357000000  6.5766887449000002
  5.8767157334000002 -4.2755790231999997  1.0385960687000000
  5.4039347747999997 -13.2300398306999991 -0.0832104414000000
  7.7687524778999997 -0.4394156293000000 -2.1729815264000001
  6.5065421117000000 -0.4237094563000000 -4.1813127140999997
 -7.0965637721999997 -5.6290761685000001 -3.8481979866999998
 -6.9742974009000003  3.8544727739000000 -2.2005306796999999
  6.1315368921999998 -2.2228319821999998  2.4933135299000000
 -4.0983790597000000 -1.1835002015000000  3.5379152292999998
  7.8777468836000004 -5.3241881848999997  1.3530484919000001
  7.1797652986999996 -5.1524945525000003  2.7154819577999998
  9.2861218711000006  7.7533227032000003  6.6987308813000004
  9.1236477060999999 16.0629251679999996  6.4171364051999999
 -1.2218388356000001 -3.6791663303000002  2.9901300506999999
 -0.5761999209000001 -2.9566631330000002  4.3255089694000004
 -2.9513804546000002  0.1473197036000000 -1.1089555154999999
 -5.1968169259000003 -0.7408745575000000 -10.6417992233999996
  8.5185318826999996 -7.5869385062000001  3.3573698378999999
  9.9824749367999992 -8.2454117904000004  2.9003445524000000
