O  H 
 1.0000000000000000
     9.8149143129328440    0.0000000000000000    0.0000000000000000
     0.0000000000000000    9.8149143129328440    0.0000000000000000
     0.0000000000000000    0.0000000000000000    9.8149143129328440
 O   H  
  32  63
Cartesian
  2.9102332875000001  5.0729898403000000 -5.1202038889999999
  5.8251510896000003 -1.6715213974000001 -2.3491983144000002
  3.7579383152000001  3.5722206397999998 -1.3515519003000001
 -0.3228961918000000  1.4147018289000000 -0.0068803794000000
 -0.4154559461000000 -3.8784870545999999  7.1317892682000004
 11.3298912359999999 -2.0751376664999999  8.5107757619999997
  6.3340758659000000  2.6959465657999999 -2.1292419969999998
  5.7820771559999997  0.9199593879000000 -4.5289737225000000
  0.8304186899000000  5.1413939565000000 13.0608148487999998
 -6.5482559130000002  0.2078589301000000 -1.3103976546000000
  2.2038589194000000  6.0780819490000004  0.7530221194000000
  3.1180986429000002 -0.0134154654000000  5.2407598597999998
 -3.1263487294000001  4.5484752555999997 -4.0725804348999999
 -1.5309595416999999 -5.5757755533999998 -10.5377102459999996
 -4.4442353060000004  4.3612963246999996 -6.4028318891999998
 -6.5557527094000001  0.1095379796000000  2.3811181531000001
 -7.4119063306999999  1.8509356724999999 10.2316849878999996
  6.9298224590000004 -7.8355306331000003  3.2321838891999999
  0.8585194385000000 11.0603064297000007  5.8433101956000000
 -12.3374012674000006 -0.1639016059000000  1.5963947996000001
 -10.5452222424999995 -10.2178721113000002 -2.5104129712000001
  0.2907762131000000 -0.1271534678000000 12.6006298443000002
  3.4699119914000001 -2.5496415023000001  6.3477471693999998
  4.7337643597000003 -3.8256420805000002 -0.5418753714000000
  6.8418177803000004  0.3718050211000000 -0.9435212334000000
 -8.2218812458000006 -5.9899644598000004 -3.1745990243000000
 -4.2223118452000001 -1.4738533588000000  3.4644093242000000
  6.8326398522999998 -4.2267445888999999  1.5836243592999999
  7.7098489258000003  7.3921781421999997  5.6782771151000002
 -1.1424618190000000 -2.6411628465999999  3.1482993884999999
 -4.7412481892000002 -0.9552021990000000  0.6808006128000000
  9.6474750170999997 -7.4053009307000002 -6.1616099371999997
  2.1610616973000001  5.2258815483000003 -5.7750444284000002
  3.3733509050000001  5.8566791735999999 -4.8306470059000004
  6.3626417589999997 -1.6484397717999999 -3.1957411053999998
  6.0634021188000000 -0.9139017739999999 -1.8002190416999999
  3.3867151579999999  3.1218526610000001 -0.6151231033000000
  4.0922782905000004  4.5173228881999998 -1.1503184353000000
 -0.7129001940000000 -8.9430816389000007  0.7031914629000000
 -0.7280064952999999  2.3374271027000000 -0.0281762730000000
  0.2227025769000000 -4.5262801505999999  6.8126921823000002
  0.0912243690000000 -3.1062579211000001  7.4682621118999997
 11.7910795594000000 -1.1711163140000000  8.5946478828000004
 11.4699766168000004 -2.4748808834000000  9.3728917530999993
  5.6098216123000002  2.9960213275999998 -1.5606488536000001
  6.5862647638000000  1.8145483875999999 -1.7813651680000000
  4.8991892773999997  0.5903391180000001 -4.6603603838999996
  0.2487458279000000  4.3356430135000004 13.1063357391000004
  0.1910828381000000  5.8368431242999996 13.0248057017000001
 -6.4184878411000001  0.5047319568000000 -2.2376332420999998
 -6.9766552032000000  0.8880154064000000 -0.7747751880000000
  3.0462963655999999  5.8195765299000000  0.3763379814000000
  2.1831629754000001  5.8945816044999999  1.6988285042000000
  3.2604544784999998 -0.9609748269000000  5.3050664311000002
  2.2910599180000002  0.3694851744000000  5.6025291079999997
 -3.2577403657000001  5.3250041456000003 -3.5171793896999999
 -3.1978285994000002  3.8084539931000001 -3.4814058735000000
 -2.2807520264000001 -5.9253925450000002 -10.9327527180999997
 -1.2309824264000000 -4.8642232327999997 -1.3566168156000000
 -5.3384774555999996  4.5659245258999999 -6.0015915774000002
 -3.7626692811000000  4.3815467097000003 -5.6657403759999996
 -5.7772790254000004 -0.3011850194000000  1.9893132358000001
 -6.4211322168000002  0.0038510210000000 -6.4616223312000001
 -7.0685702390999996  1.2764899745000000 10.9253847855000004
 -8.3481585221000003  1.6714136986000001 10.1864553616000002
  6.5136013289000001 -8.2970070942999996  4.0096797229999996
  6.2207801753999998 -7.1641734188999999  3.0729018785000002
  1.0984762250000000 11.8665237316999992  6.2913487385000000
  0.3918037075000000 11.3916261212999999 -4.7641006727999997
 -2.7006050569000002  0.6206957287000000  2.1407527273000002
 -11.6120460945000001 -0.5949806761000000  2.0753253820999999
 -9.9311757529999998 -9.7120162137000001 -2.9731926954999999
 -9.9795621894999993 -10.6567214304999993 -1.8607153990000000
 -0.0773000034000000 -0.9616376502000000 12.8809039833999996
  1.1570867551999999 -0.2996215175000000 12.1622842544999994
  2.8701296997000001 -2.3432088811999998  7.1374326041999998
  4.3146792678999999 -2.2081750273999998  6.7311242729999998
  5.2925083366000001 -3.8501991567000000  0.2359443526000000
  5.2484756309999998 -13.1534565916999995 -1.1589796113999999
  7.7277469368000000  0.2453080034000000 -1.3779106827000001
  5.7116637740999998  1.5831805045000000 -3.7714734900000000
 -7.6116415142999996 -5.4705630097000002 -3.8037878948000001
 -7.5013057650999997  3.4861941072999998 -2.5338918930999998
  5.9807074202999999 -1.3991444935999999  2.5737400902999998
 -3.6061449136000001 -1.8495922518000001  4.0137266966000000
  7.3811226704999999 -4.8581468875000002  1.0000846493000000
  6.2421061971000000 -4.6652091005000003  2.2175497347999999
  7.9885900015000004  8.2784372772000001  6.0039169541000001
  8.2452735886999999 16.6027104562000005  6.2111767540000002
 -1.5277064991000000 -3.2880164124000002  2.5169056844000002
 -1.4849479044000000 -2.7326885298999999  4.0018396143999997
 -2.9518135464999999  0.1859012902000000 -0.0101471480000000
 -4.9733410202000004 -0.4243101121000000 -9.8906173670000008
  8.7187172126999997 -7.3668044348999997  3.6148173692999999
  9.9660701923000001 -8.0638321389000005  3.0291127953000001
