O  H 
 1.0000000000000000
     9.8149143129328440    0.0000000000000000    0.0000000000000000
     0.0000000000000000    9.8149143129328440    0.0000000000000000
     0.0000000000000000    0.0000000000000000    9.8149143129328440
 O   H  
  32  63
Cartesian
  2.8398194681000000  4.8513959668000002 -6.4319853741999999
  6.0706802593999996 -2.9169242862000000 -2.8819626358999999
  3.6686289141000001  3.4677630883999999 -0.7375294112000000
 -0.4899625004000000  1.6239501113999999 -0.1082411352000000
  0.1693909860000000 -5.0365478818999998  6.8553220318000001
 11.9991444701999992 -2.9537662528999999  8.1076986709999996
  6.3006913744000004  2.8641721575000001 -1.4055052655000000
  6.0508632703999998 -0.4100307757000000 -4.7315054814000002
  0.2064572802000000  4.4109585912000000 14.0932592784999997
 -6.1273711547999996  0.2736986088000000 -1.5318772809000001
  2.0076811251000000  6.3391042508000002  1.0769585406000000
  3.4616405392999998 -0.1311951511000000  5.6562278276000004
 -4.1135530646999996  4.2566754129000000 -3.7350666513999999
 -1.4027166812000000 -5.5901202645000003 -10.2282970753000004
 -4.3002977778000000  3.8259943511999999 -6.3109652061999997
 -6.7423290468000001 -1.1978758526000000  1.7520978136000001
 -7.5704889241000002  1.3812305292000000 10.3959023576000007
  6.7333870597000001 -8.5650207407999996  2.9500075028000001
  0.4212844196000000 10.9287028746000008  6.0261489170999996
 -11.9524441321000001 -1.2219140263999999  0.1090474530000000
 -9.4149765167999995 -10.3171976119999993 -1.9102366128999999
  0.7921746955000000 -0.2041979259000000 12.2878104038000000
  3.7268959314000001 -2.7437668124000001  5.7690350685000000
  4.5709812779999996 -4.1335764908000003  0.9011218272000000
  7.2914996585000003  0.2824534437000000 -2.2144843828999998
 -7.1178510562000001 -6.5265456195000002 -3.5685328237000000
 -3.9905187954999999 -1.6577282858000000  2.5737762894000000
  6.9052116993999997 -4.5627630634000003  1.8376979640000000
  8.8178950042000004  7.2816903206000001  6.4051686690000000
 -0.7007968660000000 -2.8846433654000001  3.7657779331999999
 -4.7887109664000000 -1.7422494051999999 -0.5371927523000000
  9.1461055883999993 -7.7559644045000002 -6.3225801583000001
  2.0555795164999999  4.5761220949999997 -5.9479308303999998
  3.1101739427999999  5.5967918133000003 -5.9315389744999996
  7.0249099288999997 -2.8344239796999999 -2.9130184875000000
  5.9217378457000001 -2.5106256874000001 -1.9617998641000001
  3.4072792137999999  2.9313644034999999  0.0251317370000000
  3.6524021164999998  4.3757954344999996 -0.3505972741000000
 -0.9920713006000000 -8.7387457445999992  0.4555021907000000
 -0.5648486016000001  2.5570373658999999  0.0269307165000000
  0.3095026431000000 -5.3951647330999997  5.9561343115999996
  0.9629522576000000 -4.7189378415999998  7.2314232592999996
 11.4745516459000001 -2.1577358108000002  8.0813030668000003
 11.9065956147000005 -3.3230268178000002  9.0553985763000000
  5.4316317701000001  3.0518570513999999 -0.9675760522000000
  6.3432144034000002  1.9278442266000000 -1.4508382760000000
  5.1060058960000001 -0.2980242083000000 -4.4986186394000001
 -0.3696024410000000  3.6740010232999998 13.7033915418000003
 -0.2719113310000000  5.2143356552000002 13.8662124236000004
 -6.5590483602000003  0.2446363503000000 -2.4674076529000000
 -6.6899895235000004  0.7679017687000000 -0.8579719205000000
  2.5502656798999999  5.7274778832999997  1.5723726555999999
  1.1363282161999999  6.3924557343000004  1.5359165898000000
  3.3477064142000001 -1.1182482846999999  5.5069046771999997
  2.8030298007000001  0.3593401793000000  5.1526982080000003
 -4.1422036974000003  5.1854458940999999 -3.3482646252000001
 -3.7591113680000001  3.6636265417999998 -3.0617433316999998
 -2.2794788998000000 -6.0492329793000001 -10.4816429450000008
 -0.9703977435000000 -5.4491188163000004 -1.2389189294000000
 -5.2296144760000001  4.1221158063000001 -6.3762811946999998
 -4.0267253166000003  3.9989075182999998 -5.3521238785999996
 -6.9746558855999998 -2.1331878812000000  1.3929222774000001
 -5.8117699584000002 -1.2551908563000000 -7.7272418611999996
 -7.5221095080999998  0.5948567548000000 10.9587581770000000
 -8.5754653322000003  1.6541234522999999 10.3636427931000004
  6.1697745587000004 -9.1068626526000003  3.5475846733999998
  6.1656246081999999 -7.7638068817999999  2.9554210228000000
  1.0478327598999999 11.6196873660000008  6.3057786776000002
  0.0822673399000000 11.3134652719000002 -4.5989491109999996
 -2.8810212340999999 -1.3520622844000001  0.6792760551000000
 -11.2878258861000003 -1.6819167743000001  0.6682904855000000
 -9.3595626251000006 -9.6926687921999992 -2.7242249616000001
 -9.5019908551000007 -9.7601344266000005 -1.1596473518999999
  0.3668390819000000 -0.8723810154000000 12.8162307232000003
  1.6615471498000001 -0.6565659153000000 12.1308619421999992
  3.2592999717000000 -2.9739358249999999  6.5950437902000001
  4.6833839356000002 -2.7400352746999999  6.0136138296999997
  5.4896110922999997 -4.5078162432999997  1.1230156087000001
  4.7916227235999997 -13.1183391068000006  0.5001283079000000
  7.9923303809000004  0.8405970169000000 -2.1433713997999999
  6.4904241904999997 -0.1594565958000000 -3.9099640550000001
 -6.2346292759999997 -6.1386000522000002 -3.8252722709000002
 -7.0311624065000000  3.0975919553000000 -2.6352917872999999
  5.9218847823000003 -2.6666974196000002  2.4970241937000002
 -3.8209952890999999 -1.3595160008000000  3.4591123990999999
  7.7027745641000003 -5.0072610680000000  1.5862509862000000
  6.5366267071999999 -5.1323965956000004  2.5799379313999999
  9.1494360989000008  8.0655084483999993  6.8880037701000001
  9.3652060461000008 16.3311847093999987  6.6021484335000000
 -1.6090371655000000 -2.9128501337000001  3.3830298811000001
 -0.8585893898000000 -2.3981251260000001  4.5979086602999999
 -2.3686346781999998 -0.3381457060000000 -1.4470631302999999
 -5.3380874188999998 -0.9980899704000000 -10.7633915247999994
  8.2720704866000005 -8.2268059053000009  3.3010564802000002
  9.7368343116999991 -8.2800026489000000  3.0049128851000000
