O  H 
 1.0000000000000000
     9.8149143129328440    0.0000000000000000    0.0000000000000000
     0.0000000000000000    9.8149143129328440    0.0000000000000000
     0.0000000000000000    0.0000000000000000    9.8149143129328440
 O   H  
  32  63
Cartesian
  3.1516971684000001  5.2501707147000003 -5.4625576567999996
  6.4521393664000000 -2.3856254699999999 -3.2590023962000001
  3.6042445438000001  3.3932717502999998 -0.5695467078999999
 -0.2269976327000000  1.0626958136000000  0.1158469597000000
  0.0685630288000000 -4.8991441031000003  7.6072434281000003
 11.5247747536999992 -2.7766584596000001  8.2136202196999992
  6.0252611017000000  2.4401532186999999 -1.1310862021999999
  5.7720064261999999  0.0285858253000000 -5.1143602589999997
  1.1788565528999999  4.4444578684999998 12.5734213279000002
 -6.0742256013000002  0.3092896991000000 -1.4072984222000000
  2.1707301623999999  6.3594847642000003  0.9527279527000000
  3.0928370402000001  0.1846023680000000  5.7326764460000001
 -3.9160118628000000  3.9359355415000001 -3.2130468604000000
 -1.2841004076000000 -6.4222690545000001 -10.2045632511999997
 -4.1497308190000002  3.9254474730000002 -5.8152429483999999
 -6.5084483232999997 -0.9106508746000000  1.9848205497000000
 -7.3816234588000000  1.3198592736999999 10.6392323180999995
  7.1669962994000000 -8.0076529163999997  3.0697889953000002
  0.5940800010000000 11.3447872496999995  5.8277030575000000
 -12.6593989677999996  0.1408486027000000  0.8707716146000000
 -9.4232304307000003 -10.3468632368000009 -2.2897505579000001
  1.1479729183000000 -0.9504260808000000 13.8011929263000006
  3.5579277869000001 -2.5028801598000001  6.1155148209999997
  4.7410742720999997 -4.0510221984000001  0.5524652045000000
  7.2497013455000001  0.0369793966000000 -1.8950870257000001
 -7.5517100891000002 -6.2134564785000004 -3.3552221818999999
 -3.8326300196999998 -1.8005480398000000  2.4440738118000001
  7.0941868920999998 -4.8656694214999998  1.8359904548999999
  9.1892391411999998  6.8263993436000003  6.0462320092999997
 -0.4279300835000000 -3.4285254321999998  3.4074907304000002
 -5.0957453268000004 -1.9267650647000001 -0.9326422645000000
  9.8785091119999997 -8.2584856216000002 -6.6624901039999997
  2.5242485298999999  5.1956408000999996 -6.2042301506999999
  3.2791414154999998  6.1597196390000004 -5.0301363784999999
  7.3101966234000004 -2.7214290176000002 -3.5695821042999998
  6.6037661465999999 -2.0802598039000002 -2.3280918392999999
  3.2180402652000000  2.7706866213999999  0.1176601789000000
  3.9498785211000000  4.2012623011999999 -0.2402905908000000
 -0.9050869597000000 -9.0471580415999995  0.6947239781000000
 -0.4613764995000000  2.0308354710000001  0.0178094143000000
  0.7745472042000000 -5.5458678995000001  7.4075748375000003
  0.5999314887000000 -4.2403389939000000  8.1773468831000002
 11.3001392692000007 -1.7991729218000001  7.9172317734000002
 11.9269829170000001 -2.7075846192999999  9.0511137495000007
  5.1107199524000002  2.6649862069000001 -0.9518292964000000
  6.1226085155999996  1.4841392393999999 -1.3271242776000001
  4.8236357537999996  0.0863913477000000 -4.9264196311999999
  0.6898472517000001  3.6383620900000002 12.4020935483999999
  0.5060870634000000  5.1143569274000003 12.7891712329999994
 -6.1045001214000001  0.5781599200999999 -2.3761958891999999
 -6.3374415965999997  1.0127035599000000 -0.8663353345000000
  3.0382988366000001  5.9525668787999999  0.8733957480000000
  1.5419430790999999  5.6768777693999999  1.3434541392999999
  2.9280910471000001 -0.7553697282000000  6.1837614172000004
  2.1962637531999998  0.5880195086000000  5.7081684719999997
 -3.5515942922999999  4.8088250176000003 -3.2414327983000000
 -3.6520698900999999  3.4479488558000000 -2.3659716061000000
 -2.1674273974000000 -6.6540921491000002 -10.6398712934000006
 -0.8185457596000000 -5.8720414937000003 -1.0100722452999999
 -5.0027356943000001  4.3712296076000001 -5.7788187789999999
 -3.9426584266000000  3.7332287969000002 -4.8458988712000002
 -6.9859523636000000 -1.6769268931000001  1.5684388503000000
 -5.5259878468999997 -1.1012393410000001 -7.8838662316999999
 -7.1574744098999998  0.4804841119000000 11.0629187579000003
 -8.3110214700000000  1.2871961941000001 10.4499195149999995
  6.8511060552999998 -8.6517477265000000  3.7311413352999998
  6.5791288558999996 -7.2346605548999996  3.2824457230999999
  1.1174894698000000 12.1604307386000006  6.0334780521000004
  0.2952191489000000 11.5057364593999996 -4.9865111202000003
 -2.8607354766999999  0.8374055741000000  1.6278643849000001
 -13.0960788752999999 -0.6838146220000000  1.2470843722000000
 -9.3338818721999992 -9.5522089422000001 -2.8450004987000002
 -9.5317765781000006 -10.0310022554000007 -1.3673926823000000
  0.7768625403000000 -1.8219628021000001 13.5666078786999993
  1.8826135870000000 -0.8303819421999999 13.1621152075999994
  3.0051428353000000 -2.8863166259000002  6.8852861268999996
  4.4408580452999997 -2.4583818741000001  6.4513050511000003
  5.5950059355999997 -4.1836920926000003  1.0641169973000000
  4.7764356878000003 -13.0988002089000002 -0.0279936577000000
  8.1914821400999998  0.0655881719000000 -2.1218362638000001
  6.2008015544999999 -0.6484727785000000 -4.5793089587000004
 -7.0862467890999996 -5.7069781810000002 -4.0682168373999996
 -6.9623787337999996  3.2831725740000000 -2.6877484191000001
  6.0541920698000000 -2.7564639455000002  2.6159466427000000
 -4.1481899212000002 -1.4793083651000001  3.3063849190000001
  7.6059453626000000 -5.5470317859999998  1.3729458502000000
  6.8355834660000001 -5.2606950097000000  2.7214478142999998
  9.6147179715999993  7.6204850985999997  6.4177207678999997
  9.4791632363999998 15.8648253233999998  6.5632585070999996
 -1.2393373433999999 -3.7102293395000001  2.9310380336000001
 -0.6554340985000000 -3.3495707745000001  4.3107083598999996
 -2.4849464202000000 -0.0265524012000000 -0.8970454871000000
 -5.5995547316999996 -1.0398317073000001 -10.9070985148999995
  8.9263229258999992 -8.1934709118000004  3.1836695729000000
 10.0954666481000004 -9.1783525017999992  3.0376597868999999
