&FORCE_EVAL
  METHOD         Quickstep
  STRESS_TENSOR  ANALYTICAL
  &PRINT
    &STRESS_TENSOR
    &END STRESS_TENSOR
  &END PRINT
  &DFT
	    BASIS_SET_FILE_NAME /usr/local/cp2k-6.1/data/BASIS_MOLOPT
	    POTENTIAL_FILE_NAME /usr/local/cp2k-6.1/data/GTH_POTENTIALS
	    BASIS_SET_FILE_NAME /usr/local/cp2k-6.1/data/BASIS_ADMM_MOLOPT
	    BASIS_SET_FILE_NAME /usr/local/cp2k-6.1/data/BASIS_ADMM
            BASIS_SET_FILE_NAME /usr/local/cp2k-6.1/data/BASIS_RI_cc-TZ
!	    WFN_RESTART_FILE_NAME /home/fambrosi/w-cit/water+I-.dyn-RESTART.wfn 
!    CHARGE +1
     UKS
    &MGRID
      CUTOFF       800
      REL_CUTOFF    50
    &END MGRID
    &QS
     METHOD GPW
     EPS_DEFAULT 1.0E-12
    &END QS
    &SCF
      SCF_GUESS  RESTART
      MAX_SCF    50
      &OT
        MINIMIZER       DIIS
        PRECONDITIONER  FULL_SINGLE_INVERSE
      &END
      &OUTER_SCF
        MAX_SCF  50
      &END
!      &PRINT
!        &RESTART OFF
!        &END
!      &END
    &END SCF
    &XC
      &XC_FUNCTIONAL
          &LIBXC
           FUNCTIONAL GGA_X_RPW86
         &END LIBXC
         &LIBXC
           FUNCTIONAL GGA_C_PBE
         &END LIBXC
!       &PBE
!         SCALE_X 0.75
!         SCALE_C 1.0
!       &END PBE
    &END XC_FUNCTIONAL
      ! non-local vdW part
      &vdW_POTENTIAL
         DISPERSION_FUNCTIONAL NON_LOCAL
         &NON_LOCAL
           TYPE RVV10
           PARAMETERS  9.3  0.0093
           KERNEL_FILE_NAME  /usr/local/cp2k-6.1/data/rVV10_kernel_table.dat
           CUTOFF      400
         &END NON_LOCAL
      &END vdW_POTENTIAL
    &END XC
!    &PRINT
!     &MO_CUBES
!      NHOMO 1
!      NLUMO 1
!      WRITE_CUBE 
!    &END PRINT
  &END DFT
  &SUBSYS
    &CELL
      ABC [angstrom] 12.42 12.42 12.42
    &END CELL
    &COORD
 O         3.727113       -5.038581        7.704399
 O        -4.270073        5.659449        5.477387
 O         1.732832        3.106741        6.865003
 O        -4.279722       -0.801276       -7.560431
 O        -3.903962        2.765620        6.813717
 O         4.145623        0.959061        5.029572
 O         2.905886       -5.136784        4.003058
 O        -3.814191       -4.138304       -0.030278
 O         5.067006       -1.009919        1.451496
 O        -0.023995        4.786672        8.403740
 O         2.712119       -5.269547        1.312116
 O         2.825574       -0.714537        3.234612
 O         0.539115       -5.081265       -1.568219
 O         3.544571        5.296849       -0.287033
 O         2.400988       -2.697083        4.975568
 O        -0.347059       -1.117399        8.087652
 O         1.263863       -5.391154        6.631376
 O        -3.234623        2.033281        1.812791
 O         0.213725       -1.093777       -6.944200
 O        -2.879448       -1.680962       -1.158244
 O        -3.651927        5.728611       -0.922106
 O         4.208436        3.121407        3.336279
 O         3.404670        1.909708       -3.845022
 O        -7.725394        6.452099       -2.391940
 O         5.955096        0.047686       -2.365401
 O         3.933992        0.559691       -0.214831
 O        -6.373441       -4.035222       -1.260759
 O        -6.892354        7.223279        3.436816
 O         5.998396        1.670670       -4.667588
 O        -0.681041       -3.621774       -3.645337
 O         2.788070        2.706489       -1.359150
 O        -0.812357       -6.819911        2.510697
 O         0.735518       -6.994004        4.696811
 O        -0.782930       -7.256164       -1.208141
 O        -2.393502       -0.496147        1.224278
 O         2.055157       -2.651628       -1.649065
 O        -1.029957        3.288528        1.238284
 O        -3.325470       -6.638553        3.020939
 O         5.571258        6.083864        6.087791
 O        -6.642717       -0.940986       -5.718314
 O         0.037145        1.700274        5.063867
 O        -4.651353       -1.598915        2.258004
 O         1.632872       -0.793885        0.640733
 O        -6.953760        4.907290        1.869596
 O        -1.363057        2.693592       -4.866016
 O        -4.855437        2.515675       -1.811268
 O         4.035542       -3.182862        0.282826
 O        -1.029239        1.085288       -2.705770
 O        -0.142184        8.037221        1.454362
 O         3.636544       -2.075508        7.223738
 O        -5.623491       -7.697015       -2.940824
 O        -3.393921       -0.768617       -3.695855
 O         0.444404        1.702088       -0.601220
 O        -5.459038       -2.620360       -3.353465
 O        -2.830542        2.057939        4.436309
 O        -3.484211       -4.094227       -6.661512
 O        -0.591477       -2.302974        3.014103
 O         1.274747        3.172478        3.091530
 O         2.098627       -0.482427       -3.375997
 O        -4.386238        4.374589        1.068440
 O        -0.327996       -2.544992       -0.381534
 O         3.397344        4.767592        5.165382
 O        -3.187839       -4.275594        8.448869
 O        -4.578249       -4.196404        2.482780
 H         3.626912       -4.093579        7.890786
 H         2.867175       -5.289638        7.294498
 H        -4.157998        4.791479        5.950349
 H        -5.248826        5.734959        5.481208
 H         1.151295        3.725988        7.280103
 H         1.169895        2.525215        6.297933
 H        -3.684795       -0.078372       -7.581915
 H        -4.409725       -1.072956       -8.470715
 H        -4.679344        2.377091        7.314942
 H        -3.048277        2.695962        7.277138
 H         4.782101        0.345524        5.467412
 H         3.567791        0.337478        4.545741
 H         2.658566       -5.342038        3.089975
 H         2.833853       -5.964046        4.518559
 H        -3.519680       -3.299992       -0.371504
 H        -3.575382       -4.866522       -0.646243
 H         6.006911       -1.023913        1.760446
 H         4.948349       -0.242718        0.850480
 H         0.324636        5.658300        8.144938
 H        -0.007626        4.832886        9.341804
 H         2.926930       -6.055960        0.756625
 H         3.208845       -4.538405        0.871902
 H         2.734244       -1.598522        3.778430
 H         3.611543       -0.774527        2.624110
 H         0.176534       -5.865490       -1.090599
 H         1.405014       -4.818193       -1.299312
 H         3.488562        4.373501       -0.350231
 H         3.888221        5.573020       -1.160574
 H         2.945284       -2.570411        5.807583
 H         2.513821       -3.647054        4.777593
 H        -0.448926       -2.134416        8.473457
 H        -0.236047       -1.105874        7.140226
 H         0.982838       -5.932765        5.817134
 H         0.598981       -4.691881        6.645855
 H        -4.001068        2.600425        1.573149
 H        -3.265698        2.076306        2.783166
 H         1.062767       -1.573173       -6.959927
 H        -0.336662       -1.503325       -7.689651
 H        -3.116924       -1.331168       -2.031631
 H        -2.872550       -1.007903       -0.448147
 H        -4.265521        5.542030       -1.705580
 H        -4.003058        5.182058       -0.183595
 H         4.392089        2.270674        3.831453
 H         4.990806        3.550658        2.974823
 H         2.880008        2.330707       -4.532212
 H         2.998895        1.053317       -3.700332
 H        -7.084703        5.717659       -2.569402
 H        -8.081487        6.858677       -3.239438
 H         6.353412       -0.801632       -2.609222
 H         5.276582       -0.005316       -1.713786
 H         3.094893        0.109509       -0.078573
 H         3.600099        1.395744       -0.552480
 H        -6.887503       -4.857486       -1.404375
 H        -5.579854       -4.252647       -0.719506
 H        -6.704956        6.848473        4.313424
 H        -7.872730        7.273611        3.332027
 H         5.975886        1.171178       -3.836743
 H         5.097644        1.966343       -4.709062
 H        -1.592680       -3.832467       -3.721905
 H        -0.256005       -4.021510       -2.879452
 H         3.076559        2.412185       -2.302161
 H         1.902599        2.470783       -1.216001
 H        -1.531814       -6.812512        3.150657
 H        -0.968191       -7.679934        2.008834
 H         0.288201       -6.914633        3.836613
 H         0.946022       -7.893400        4.602865
 H        -0.663419       -7.617593       -0.302748
 H        -1.675551       -6.891477       -1.270553
 H        -2.480713        0.445553        1.488320
 H        -1.479105       -0.696565        1.546077
 H         2.703018       -2.456627       -0.963425
 H         1.142348       -2.602652       -1.313998
 H        -1.881622        2.864212        1.473355
 H        -0.544857        2.657898        0.597140
 H        -3.720849       -6.837790        3.905648
 H        -3.570866       -5.691142        2.856570
 H         4.812510        5.504374        5.907501
 H         5.164458        6.721716        6.695356
 H        -5.834112       -1.314379       -6.136961
 H        -6.493550       -0.008579       -5.338480
 H         0.473789        1.847986        4.219796
 H         0.029531        0.742697        5.125304
 H        -4.771451       -2.596952        2.369782
 H        -3.906693       -1.384937        1.713104
 H         1.806309       -0.958169        1.570736
 H         1.108555       -1.517221        0.330117
 H        -6.705723        5.726423        2.407809
 H        -7.688736        5.199571        1.196238
 H        -0.848127        3.561520       -4.785431
 H        -0.975091        2.083170       -5.471532
 H        -3.901423        2.543822       -1.598644
 H        -5.063545        1.589724       -2.031389
 H         4.845510       -3.340808       -0.195731
 H         4.262784       -2.426703        0.872751
 H        -1.286339        1.797610       -3.271637
 H        -0.540466        0.386846       -3.197914
 H        -0.389172        7.228573        1.892967
 H         0.839191        8.004352        1.445182
 H         3.016786       -1.499929        7.772395
 H         4.442419       -1.524879        6.980218
 H        -5.520927       -7.581027       -3.904124
 H        -5.456941       -8.636550       -2.732967
 H        -2.652195       -0.739031       -4.249364
 H        -4.015337       -1.445464       -3.884588
 H        -0.137934        1.418306       -1.334098
 H         0.776269        0.867453       -0.170298
 H        -5.661899       -3.131109       -2.520819
 H        -6.195243       -2.709920       -3.949158
 H        -3.416194        2.330124        5.254219
 H        -1.941428        1.916556        4.752088
 H        -3.283432       -3.590683       -7.473857
 H        -3.670557       -4.987472       -6.924222
 H        -0.311259       -3.026740        2.391377
 H         0.863326        3.314123        2.276889
 H         2.275739        3.273749        2.985221
 H         1.129395       -0.575245       -3.588960
 H         2.144460       -1.119495       -2.632508
 H        -5.370238        4.433998        1.254527
 H        -3.996373        4.740030        1.909203
 H        -0.546515       -3.488412       -0.077245
 H        -1.121989       -2.125563       -0.782791
 H         2.758817        4.334142        5.691186
 H         3.714105        4.205128        4.384304
 H        -3.865694       -3.681138        8.833721
 H        -3.386124       -4.318243        7.499731
 H        -4.562912       -4.252951        1.500708
 H        -5.416489       -4.503634        2.792993
    &END COORD
!    &TOPOLOGY
!      COORD_FILE_NAME   ./fort.20850
!      COORD_FILE_FORMAT xyz
!    &END TOPOLOGY
!    &KIND Pb
!      BASIS_SET DZVP-MOLOPT-SR-GTH-q4
!      POTENTIAL GTH-PBE-q4
!    &END KIND
    &KIND I
      BASIS_SET DZVP-MOLOPT-SR-GTH-q7 
      POTENTIAL GTH-PBE-q7
    &END KIND
    &KIND O
!      BASIS_SET DZVP-MOLOPT-SR-GTH-q6
      BASIS_SET cc-TZ
      POTENTIAL GTH-PBE-q6
    &END KIND
    &KIND H
!      BASIS_SET DZVP-MOLOPT-SR-GTH-q1
      BASIS_SET cc-TZ
      POTENTIAL GTH-PBE-q1
    &END KIND
    &KIND C
      BASIS_SET DZVP-MOLOPT-SR-GTH-q4
!      BASIS_SET cc-TZ
      POTENTIAL GTH-PBE-q4
!      BASIS_SET AUX_FIT cFIT3 !SZV-MOLOPT-SR-GTH
    &END KIND
    &KIND N
!      BASIS_SET cc-TZ
      BASIS_SET DZVP-MOLOPT-SR-GTH-q5
      POTENTIAL GTH-PBE-q5
!      BASIS_SET AUX_FIT cFIT3 !SZV-MOLOPT-SR-GTH
    &END KIND
  &END SUBSYS
&END FORCE_EVAL
&MOTION
 &MD
  STEPS	50000000
  TIMESTEP 0.48
  TEMPERATURE 350
  ENSEMBLE NVT
  &THERMOSTAT
    REGION MASSIVE
    TYPE NOSE
    &NOSE
      TIMECON 16.68
    &END NOSE
  &END THERMOSTAT
  &BAROSTAT
    PRESSURE 0.0
    TIMECON 300
  &END BAROSTAT
 &END MD
  &PRINT
   &TRAJECTORY
    &EACH
     MD 1
    &END EACH
   &END TRAJECTORY
   &CELL
    &EACH
     MD 1
    &END EACH
   &END CELL
   &VELOCITIES OFF
   &END VELOCITIES
   &FORCES OFF
   &END FORCES
   &RESTART_HISTORY
    &EACH
     MD 500
    &END EACH
   &END RESTART_HISTORY
   &RESTART
    BACKUP_COPIES 3
    &EACH
     MD 1
    &END EACH
   &END RESTART
  &END PRINT
&END MOTION
! &CONSTRAINT
!  &FIXED_ATOMS
!   LIST 1..382
!  &END FIXED_ATOMS
! &END CONSTRAINT
!&GEO_OPT
!  OPTIMIZER BFGS
!    &BFGS
!     TRUST_RADIUS 0.1
!    &END
!&END GEO_OPT
&GLOBAL
  PROJECT      water+I-.dyn
  RUN_TYPE     WFN_OPT
  PRINT_LEVEL  LOW
  EXTENDED_FFT_LENGTHS
!  WALLTIME     23:00:00
&END GLOBAL
!&EXT_RESTART
!RESTART_FILE_NAME /home/fambrosi/w-cit/water+I-.dyn-1.restart 
!&END EXT_RESTART

