ALGO = Normal
NELM = 40
AEXX = 0.45
IMIX = 1
AMIX = 0.3
EDIFF = 1e-06
ENCUT = 800
HFSCREEN = 0
IBRION = 2
ISIF = 1
ISMEAR = 0
LASPH = True
LHFCALC = True
LORBIT = 11
LREAL = Auto
LWAVE = True
PREC = Accurate
PRECFOCK = Fast
SIGMA = 0.02
NBANDS = 256
ISPIN = 1
#LOPTICS = True
#LPEAD = True
NELECT = 256
