ALGO = QPGW
LFXCEPS = .TRUE. ; LFXC = .TRUE. ;  LTCTE = .TRUE.
NELM = 6
NOMEGA = 60
ENCUT = 800
ISMEAR = 0
ISPIN = 1
LASPH = True
LREAL = Auto
LWAVE = True
LCHARG = False
PREC = Accurate
PRECFOCK = Fast
NBANDS = 3072
ENCUTGW = 300
NEDOS = 2001
ANTIRES = 1
LPEAD = True
LOPTICS = True
NELECT = 256

IMIX = 1
AMIX = 0.3
BMIX = 1E-3
